! Generated by 参数面去嵌台 (reference-plane de-embed bench)
# GHz S RI R 50
0.1000000000 -0.2722532367 -0.2270636026 0.6208333164 -0.6292463434 0.6208333164 -0.6292463434 -0.2240825213 -0.2636838469
0.1100000000 -0.3157697668 -0.2207478093 0.5629771363 -0.6649047310 0.5629771363 -0.6649047310 -0.2624053391 -0.2693945222
0.1200000000 -0.3588361215 -0.2082711046 0.5034612026 -0.6944849830 0.5034612026 -0.6944849830 -0.3014013017 -0.2705493704
0.1300000000 -0.4006545118 -0.1898496661 0.4429701820 -0.7180231378 0.4429701820 -0.7180231378 -0.3404913606 -0.2671839328
0.1400000000 -0.4404796084 -0.1657862740 0.3821864894 -0.7356985984 0.3821864894 -0.7356985984 -0.3792028791 -0.2594543849
0.1500000000 -0.4776250355 -0.1364674882 0.3216898391 -0.7476847758 0.3216898391 -0.7476847758 -0.4170428777 -0.2475258089
0.1600000000 -0.5115186533 -0.1023583045 0.2620379359 -0.7542788751 0.2620379359 -0.7542788751 -0.4536062574 -0.2316354507
0.1700000000 -0.5416593375 -0.06396919384 0.2037095216 -0.7557966296 0.2037095216 -0.7557966296 -0.4885240440 -0.2120466885
0.1800000000 -0.5676117338 -0.02184666843 0.1471138744 -0.7525592970 0.1471138744 -0.7525592970 -0.5214578588 -0.1890420721
0.1900000000 -0.5890647008 0.02343596779 0.09261500804 -0.7449801346 0.09261500804 -0.7449801346 -0.5521762640 -0.1629423811
0.2000000000 -0.6057730578 0.07129756957 0.04049936487 -0.7334040239 0.04049936487 -0.7334040239 -0.5803953804 -0.1340484080
0.2100000000 -0.6175407523 0.1211538328 -0.008992370303 -0.7182478471 -0.008992370303 -0.7182478471 -0.6060004504 -0.1026978575
0.2200000000 -0.6242929504 0.1724343294 -0.05567701918 -0.6998880428 -0.05567701918 -0.6998880428 -0.6288119505 -0.06920297289
0.2300000000 -0.6259954121 0.2245844268 -0.09941983593 -0.6787190578 -0.09941983593 -0.6787190578 -0.6487546319 -0.03388203995
0.2400000000 -0.6226495443 0.2770614650 -0.1401273677 -0.6550977117 -0.1401273677 -0.6550977117 -0.6657657431 0.002960103363
0.2500000000 -0.6143570353 0.3293670676 -0.1777454244 -0.6293797720 -0.1777454244 -0.6293797720 -0.6797877055 0.04102917791
0.2600000000 -0.6012399106 0.3810257570 -0.2122614710 -0.6019248247 -0.2122614710 -0.6019248247 -0.6908652385 0.08004905033
0.2700000000 -0.5834397656 0.4315799444 -0.2436701082 -0.5730057875 -0.2436701082 -0.5730057875 -0.6989394120 0.1197463513
0.2800000000 -0.5611751124 0.4806329991 -0.2720227953 -0.5429635528 -0.2720227953 -0.5429635528 -0.7041253056 0.1598844392
0.2900000000 -0.5346713699 0.5278123674 -0.2973672438 -0.5120528851 -0.2973672438 -0.5120528851 -0.7064261501 0.2002215973
0.3000000000 -0.5041570807 0.5727576055 -0.3197771248 -0.4805288364 -0.3197771248 -0.4805288364 -0.7059373320 0.2405493488
0.3100000000 -0.4699207771 0.6151834592 -0.3393471781 -0.4486346057 -0.3393471781 -0.4486346057 -0.7027401595 0.2806703974
0.3200000000 -0.4322446453 0.6548207750 -0.3561720194 -0.4165751307 -0.3561720194 -0.4165751307 -0.6968995992 0.3203917798
0.3300000000 -0.3914069412 0.6914060332 -0.3703680673 -0.3845513866 -0.3703680673 -0.3845513866 -0.6885656760 0.3595710843
0.3400000000 -0.3477271685 0.7247594131 -0.3820385021 -0.3527252486 -0.3820385021 -0.3527252486 -0.6777669078 0.3980169028
0.3500000000 -0.3015121867 0.7547060367 -0.3913268020 -0.3212731693 -0.3913268020 -0.3212731693 -0.6646879449 0.4356342126
0.3600000000 -0.2530618650 0.7810725502 -0.3983370309 -0.2903169317 -0.3983370309 -0.2903169317 -0.6493918462 0.4722686145
0.3700000000 -0.2026997641 0.8037698186 -0.4032119516 -0.2599925269 -0.4032119516 -0.2599925269 -0.6320174860 0.5078254024
0.3800000000 -0.1507349211 0.8227079646 -0.4060806528 -0.2304083672 -0.4060806528 -0.2304083672 -0.6126803388 0.5422061861
0.3900000000 -0.09746941651 0.8377905493 -0.4070568996 -0.2016517436 -0.4070568996 -0.2016517436 -0.5914744678 0.5753025760
0.4000000000 -0.04321285961 0.8490065937 -0.4062915001 -0.1738164311 -0.4062915001 -0.1738164311 -0.5685589168 0.6070794331
0.4100000000 0.01173934588 0.8563378300 -0.4038884572 -0.1469637181 -0.4038884572 -0.1469637181 -0.5439868319 0.6374019828
0.4200000000 0.06709505951 0.8597530346 -0.3999868698 -0.1211583848 -0.3999868698 -0.1211583848 -0.5179327921 0.6662798219
0.4300000000 0.1225717082 0.8593064985 -0.3947012901 -0.09644813773 -0.3947012901 -0.09644813773 -0.4904706059 0.6936147272
0.4400000000 0.1778962877 0.8550380811 -0.3881576296 -0.07287435668 -0.3881576296 -0.07287435668 -0.4617292329 0.7193883303
0.4500000000 0.2327965411 0.8469726463 -0.3804637301 -0.05046672945 -0.3804637301 -0.05046672945 -0.4318163659 0.7435653629
0.4600000000 0.2870238167 0.8352159608 -0.3717318663 -0.02924956495 -0.3717318663 -0.02924956495 -0.4008227613 0.7660893390
0.4700000000 0.3403346072 0.8198557764 -0.3620831858 -0.009239022386 -0.3620831858 -0.009239022386 -0.3688802570 0.7869928614
0.4800000000 0.3924823864 0.8009631350 -0.3515953417 0.009555187605 -0.3515953417 0.009555187605 -0.3360502124 0.8061730471
0.4900000000 0.4432566984 0.7786839290 -0.3403943932 0.02713041828 -0.3403943932 0.02713041828 -0.3024680558 0.8237041278
0.5000000000 0.4924485654 0.7531439199 -0.3285636602 0.04348789018 -0.3285636602 0.04348789018 -0.2682063680 0.8395199646
0.5100000000 0.5398399677 0.7244519438 -0.3161947542 0.05863478837 -0.3161947542 0.05863478837 -0.2333679188 0.8536473268
0.5200000000 0.5852625654 0.6927837180 -0.3033813774 0.07258382206 -0.3033813774 0.07258382206 -0.1980415916 0.8660875465
0.5300000000 0.6285434915 0.6582941057 -0.2902016098 0.08534948758 -0.2902016098 0.08534948758 -0.1623076605 0.8768143789
0.5400000000 0.6694966035 0.6211223661 -0.2767393818 0.09695341076 -0.2767393818 0.09695341076 -0.1262608644 0.8858987278
0.5500000000 0.7079965269 0.5814644564 -0.2630611583 0.1074143017 -0.2630611583 0.1074143017 -0.08996955771 0.8932575757
0.5600000000 0.7439076286 0.5394966971 -0.2492518996 0.1167646350 -0.2492518996 0.1167646350 -0.05352256489 0.8990002598
0.5700000000 0.7770778480 0.4953815255 -0.2353653603 0.1250265539 -0.2353653603 0.1250265539 -0.01699071501 0.9030805010
0.5800000000 0.8074240455 0.4493272143 -0.2214738646 0.1322358203 -0.2214738646 0.1322358203 0.01955194176 0.9055498292
0.5900000000 0.8348488070 0.4015237908 -0.2076365102 0.1384259633 -0.2076365102 0.1384259633 0.05603604034 0.9064302636
0.6000000000 0.8592346917 0.3521508611 -0.1939017498 0.1436269743 -0.1939017498 0.1436269743 0.09239156195 0.9057141075
0.6100000000 0.8805400685 0.3014211704 -0.1803319500 0.1478837400 -0.1803319500 0.1478837400 0.1285609228 0.9034908439
0.6200000000 0.8987050586 0.2495318169 -0.1669663955 0.1512264324 -0.1669663955 0.1512264324 0.1644675804 0.8996936497
0.6300000000 0.9136472495 0.1966738037 -0.1538553458 0.1537000081 -0.1538553458 0.1537000081 0.2000681304 0.8944463771
0.6400000000 0.9253646298 0.1430571238 -0.1410381657 0.1553422995 -0.1410381657 0.1553422995 0.2352921421 0.8877175940
0.6500000000 0.9338336072 0.08888035365 -0.1285551751 0.1561975356 -0.1285551751 0.1561975356 0.2700922819 0.8795706839
0.6600000000 0.9390066392 0.03433972910 -0.1164386234 0.1563047814 -0.1164386234 0.1563047814 0.3044166527 0.8700390960
0.6700000000 0.9409185869 -0.02036327564 -0.1047208363 0.1557067914 -0.1047208363 0.1557067914 0.3382039346 0.8591277056
0.6800000000 0.9395804435 -0.07503443907 -0.09343337440 0.1544519336 -0.09343337440 0.1544519336 0.3714301512 0.8469313832
0.6900000000 0.9349785675 -0.1294775358 -0.08259569654 0.1525722693 -0.08259569654 0.1525722693 0.4040104908 0.8333996579
0.7000000000 0.9271815052 -0.1835049520 -0.07223623070 0.1501219817 -0.07223623070 0.1501219817 0.4359421973 0.8186565331
0.7100000000 0.9162323580 -0.2369320549 -0.06237223337 0.1471388917 -0.06237223337 0.1471388917 0.4671545888 0.8026838467
0.7200000000 0.9021500795 -0.2895673750 -0.05302065562 0.1436658113 -0.05302065562 0.1436658113 0.4976236683 0.7855485099
0.7300000000 0.8850329278 -0.3412421171 -0.04419702147 0.1397481878 -0.04419702147 0.1397481878 0.5273125365 0.7672898989
0.7400000000 0.8649533233 -0.3917855412 -0.03591247952 0.1354259572 -0.03591247952 0.1354259572 0.5561673209 0.7479223963
0.7500000000 0.8419607439 -0.4410157387 -0.02817672472 0.1307430016 -0.02817672472 0.1307430016 0.5841928018 0.7275373491
0.7600000000 0.8161788689 -0.4887865719 -0.02099637608 0.1257365926 -0.02099637608 0.1257365926 0.6112973543 0.7061020663
0.7700000000 0.7877061486 -0.5349451409 -0.01437697150 0.1204537955 -0.01437697150 0.1204537955 0.6375125956 0.6837307177
0.7800000000 0.7566199349 -0.5793233773 -0.008320370155 0.1149281371 -0.008320370155 0.1149281371 0.6627679992 0.6604182138
0.7900000000 0.7230648355 -0.6218008844 -0.002827410522 0.1092030807 -0.002827410522 0.1092030807 0.6870592405 0.6362295395
0.8000000000 0.6871614169 -0.6622460108 0.002103645032 0.1033167436 0.002103645032 0.1033167436 0.7103621802 0.6112066246
0.8100000000 0.6490119903 -0.7005082484 0.006476168352 0.09730288162 0.006476168352 0.09730288162 0.7326297419 0.5853717181
0.8200000000 0.6087771040 -0.7364953453 0.01029592909 0.09120302269 0.01029592909 0.09120302269 0.7538902552 0.5588066567
0.8300000000 0.5665953862 -0.7700995605 0.01356949609 0.08504788812 0.01356949609 0.08504788812 0.7740479439 0.5314980153
0.8400000000 0.5225906634 -0.8011912256 0.01630621328 0.07887445394 0.01630621328 0.07887445394 0.7931620171 0.5035433388
0.8500000000 0.4769343085 -0.8297077750 0.01851622506 0.07271471580 0.01851622506 0.07271471580 0.8111633835 0.4749507928
0.8600000000 0.4297787513 -0.8555674285 0.02021187596 0.06660175471 0.02021187596 0.06660175471 0.8280638595 0.4457798610
0.8700000000 0.3812654229 -0.8786640273 0.02140621798 0.06056491294 0.02140621798 0.06056491294 0.8438502233 0.4160728953
0.8800000000 0.3315714621 -0.8989654625 0.02211404971 0.05463391649 0.02211404971 0.05463391649 0.8584821044 0.3858590241
0.8900000000 0.2808585593 -0.9164172541 0.02235221233 0.04883852393 0.02235221233 0.04883852393 0.8720062609 0.3552066540
0.9000000000 0.2292816528 -0.9309388245 0.02213640751 0.04320218217 0.02213640751 0.04320218217 0.8843262435 0.3241226357
0.9100000000 0.1770185794 -0.9425285018 0.02148659645 0.03775348148 0.02148659645 0.03775348148 0.8955220902 0.2926834707
0.9200000000 0.1242357147 -0.9511597431 0.02042145880 0.03251499006 0.02042145880 0.03251499006 0.9055280570 0.2609106591
0.9300000000 0.07109719216 -0.9567789962 0.01896138191 0.02750931539 0.01896138191 0.02750931539 0.9143688744 0.2288558619
0.9400000000 0.01777662304 -0.9594142161 0.01712802379 0.02275819367 0.01712802379 0.02275819367 0.9220408047 0.1965604387
0.9500000000 -0.03555945691 -0.9590667708 0.01494318788 0.01828092049 0.01494318788 0.01828092049 0.9285105545 0.1640596349
0.9600000000 -0.08874217375 -0.9557108735 0.01242992773 0.01409601750 0.01242992773 0.01409601750 0.9338384827 0.1314059843
0.9700000000 -0.1416067777 -0.9494026031 0.009611401295 0.01021990171 0.009611401295 0.01021990171 0.9379314601 0.09862690553
0.9800000000 -0.1939909925 -0.9401705168 0.006512219788 0.006668436254 0.006512219788 0.006668436254 0.9408838697 0.06577521080
0.9900000000 -0.2457256643 -0.9280166637 0.003156576106 0.003455000917 0.003156576106 0.003455000917 0.9426356584 0.03288544928
1.000000000 -0.2966591893 -0.9130230702 -0.0004302342364 0.0005921666516 -0.0004302342362 0.0005921666517 0.9432215954 -3.511986485e-8
1.010000000 -0.3466377519 -0.8952441096 -0.004222898616 -0.001909325360 -0.004222898616 -0.001909325360 0.9426463600 -0.03284191866
1.020000000 -0.3954962967 -0.8747090663 -0.008195531438 -0.004040065100 -0.008195531438 -0.004040065100 0.9408844552 -0.06559964615
1.030000000 -0.4431002043 -0.8515231304 -0.01232250934 -0.005792366134 -0.01232250934 -0.005792366134 0.9380053741 -0.09823794567
1.040000000 -0.4893080118 -0.8257645145 -0.01657726028 -0.007159649685 -0.01657726028 -0.007159649685 0.9339235857 -0.1307093915
1.050000000 -0.5339629623 -0.7974884799 -0.02093391296 -0.008137204244 -0.02093391296 -0.008137204244 0.9287417089 -0.1629861734
1.060000000 -0.5769507306 -0.7668200731 -0.02536601480 -0.008721528590 -0.02536601480 -0.008721528590 0.9224079829 -0.1950215096
1.070000000 -0.6181457095 -0.7338588170 -0.02984779341 -0.008910818302 -0.02984779341 -0.008910818302 0.9149646620 -0.2267833450
1.080000000 -0.6574033627 -0.6986840699 -0.03435267537 -0.008704411180 -0.03435267537 -0.008704411180 0.9064240544 -0.2582353040
1.090000000 -0.6946323756 -0.6614369923 -0.03885477948 -0.008103247044 -0.03885477948 -0.008103247044 0.8967694004 -0.2893325670
1.100000000 -0.7297260338 -0.6222354019 -0.04332977414 -0.007109941872 -0.04332977414 -0.007109941872 0.8860751984 -0.3200577518
1.110000000 -0.7625555709 -0.5811803028 -0.04774948080 -0.005727674494 -0.04774948080 -0.005727674494 0.8742678740 -0.3503449448
1.120000000 -0.7930547622 -0.5384248919 -0.05209189169 -0.003962047040 -0.05209189169 -0.003962047040 0.8614525424 -0.3801916131
1.130000000 -0.8211382735 -0.4941018532 -0.05633100716 -0.001819236103 -0.05633100716 -0.001819236103 0.8475884186 -0.4095402168
1.140000000 -0.8466962343 -0.4483308870 -0.06044253861 0.0006929678938 -0.06044253861 0.0006929678938 0.8327229236 -0.4383696440
1.150000000 -0.8696888739 -0.4012729054 -0.06440411323 0.003565535306 -0.06440411323 0.003565535306 0.8168753639 -0.4666474130
1.160000000 -0.8900541636 -0.3530717198 -0.06819186320 0.006788235224 -0.06819186320 0.006788235224 0.8000387217 -0.4943258593
1.170000000 -0.9077037141 -0.3038623346 -0.07178447749 0.01034957581 -0.07178447749 0.01034957581 0.7822886386 -0.5214055394
1.180000000 -0.9226248663 -0.2538089454 -0.07515828316 0.01423672223 -0.07515828316 0.01423672223 0.7635677082 -0.5478046191
1.190000000 -0.9347802106 -0.2030625129 -0.07829617770 0.01843634911 -0.07829617770 0.01843634911 0.7439781223 -0.5735452495
1.200000000 -0.9441048101 -0.1517696275 -0.08117430402 0.02293284062 -0.08117430402 0.02293284062 0.7234926286 -0.5985613566
1.210000000 -0.9506131190 -0.1000933010 -0.08377639563 0.02771083272 -0.08377639563 0.02771083272 0.7021616143 -0.6228432235
1.220000000 -0.9542929358 -0.04818756332 -0.08608444440 0.03275350003 -0.08608444440 0.03275350003 0.6800107584 -0.6463633360
1.230000000 -0.9551041899 0.003793393453 -0.08807824268 0.03804183546 -0.08807824268 0.03804183546 0.6570436609 -0.6690730589
1.240000000 -0.9530876778 0.05569209928 -0.08974625871 0.04355868661 -0.08974625871 0.04355868661 0.6333334239 -0.6909904370
1.250000000 -0.9482563761 0.1073555433 -0.09106896077 0.04928263645 -0.09106896077 0.04928263645 0.6088425939 -0.7120213872
1.260000000 -0.9405958336 0.1586260971 -0.09203524275 0.05519421044 -0.09203524275 0.05519421044 0.5836652926 -0.7322113390
1.270000000 -0.9301717146 0.2093559213 -0.09263093123 0.06127160536 -0.09263093123 0.06127160536 0.5577899792 -0.7514886962
1.280000000 -0.9170215541 0.2593971298 -0.09284597249 0.06749378213 -0.09284597249 0.06749378213 0.5312677972 -0.7698554163
1.290000000 -0.9011565179 0.3085927472 -0.09266820825 0.07383692966 -0.09266820825 0.07383692966 0.5041300065 -0.7872901703
1.300000000 -0.8826651159 0.3568084474 -0.09208859600 0.08027801531 -0.09208859600 0.08027801531 0.4763913468 -0.8037456874
1.310000000 -0.8616080992 0.4039052954 -0.09110246902 0.08679589902 -0.09110246902 0.08679589902 0.4481188127 -0.8192565447
1.320000000 -0.8380216636 0.4497310301 -0.08969664397 0.09336084538 -0.08969664397 0.09336084538 0.4192979188 -0.8337211667
1.330000000 -0.8120145182 0.4941683442 -0.08787240499 0.09995409084 -0.08787240499 0.09995409084 0.3900098435 -0.8472060144
1.340000000 -0.7836687307 0.5370907043 -0.08562258920 0.1065479492 -0.08562258920 0.1065479492 0.3602602656 -0.8596377233
1.350000000 -0.7530442798 0.5783546344 -0.08294458095 0.1131168528 -0.08294458095 0.1131168528 0.3300987579 -0.8710299788
1.360000000 -0.7202669254 0.6178626337 -0.07983879370 0.1196376025 -0.07983879370 0.1196376025 0.2995610374 -0.8813689321
1.370000000 -0.6854376300 0.6555038631 -0.07630386641 0.1260829736 -0.07630386641 0.1260829736 0.2686729173 -0.8906113839
1.380000000 -0.6486382739 0.6911472194 -0.07234284754 0.1324291679 -0.07234284754 0.1324291679 0.2374918144 -0.8988069069
1.390000000 -0.6100081668 0.7247173673 -0.06795595263 0.1386467718 -0.06795595263 0.1386467718 0.2060280764 -0.9058521349
1.400000000 -0.5696641959 0.7561219818 -0.06315161447 0.1447171374 -0.06315161447 0.1447171374 0.1743454179 -0.9118313917
1.410000000 -0.5277078258 0.7852454795 -0.05793180395 0.1506077885 -0.05793180395 0.1506077885 0.1424672714 -0.9166738783
1.420000000 -0.4842879309 0.8120366252 -0.05230616082 0.1562989329 -0.05230616082 0.1562989329 0.1104391388 -0.9204047099
1.430000000 -0.4395341525 0.8364236416 -0.04628311483 0.1617661593 -0.04628311483 0.1617661593 0.07829961004 -0.9230187366
1.440000000 -0.3935645777 0.8583094251 -0.03987073523 0.1669794689 -0.03987073523 0.1669794689 0.04608470749 -0.9244797143
1.450000000 -0.3465335925 0.8776678440 -0.03308303617 0.1719238112 -0.03308303617 0.1719238112 0.01383896491 -0.9248499796
1.460000000 -0.2985800806 0.8944493410 -0.02593007743 0.1765673794 -0.02593007743 0.1765673794 -0.01840209288 -0.9240307221
1.470000000 -0.2498353219 0.9085776330 -0.01842759438 0.1808930958 -0.01842759438 0.1808930958 -0.05059620305 -0.9221199566
1.480000000 -0.2004552422 0.9200520315 -0.01059001779 0.1848763235 -0.01059001779 0.1848763235 -0.08270287730 -0.9190540645
1.490000000 -0.1505839245 0.9288463355 -0.002434250687 0.1884990784 -0.002434250687 0.1884990784 -0.1146833319 -0.9148687698
1.500000000 -0.1003625157 0.9349067030 0.006022123652 0.1917375030 0.006022123652 0.1917375030 -0.1464981993 -0.9095685368
1.510000000 -0.04994413784 0.9382577031 0.01476030429 0.1945723356 0.01476030429 0.1945723356 -0.1781030377 -0.9031268369
1.520000000 0.0005256904199 0.9388968099 0.02376040996 0.1969919618 0.02376040996 0.1969919618 -0.2094691735 -0.8956157362
1.530000000 0.05089971371 0.9367938221 0.03300048826 0.1989647269 0.03300048826 0.1989647269 -0.2405373627 -0.8869475032
1.540000000 0.1010318162 0.9319975514 0.04245950241 0.2004884623 0.04245950241 0.2004884623 -0.2712899602 -0.8772286394
1.550000000 0.1507786280 0.9245289886 0.05211375450 0.2015408162 0.05211375450 0.2015408162 -0.3016715043 -0.8664071818
1.560000000 0.1999910477 0.9143819612 0.06193870148 0.2021074572 0.06193870148 0.2021074572 -0.3316525853 -0.8545279410
1.570000000 0.2485333995 0.9016280301 0.07191051483 0.2021793834 0.07191051483 0.2021793834 -0.3611955983 -0.8416053477
1.580000000 0.2962684522 0.8863108020 0.08200259778 0.2017413562 0.08200259778 0.2017413562 -0.3902503943 -0.8276248554
1.590000000 0.3430489880 0.8684479687 0.09218933917 0.2007867222 0.09218933917 0.2007867222 -0.4188065434 -0.8126643754
1.600000000 0.3887532566 0.8481317886 0.1024410606 0.1992994077 0.1024410606 0.1992994077 -0.4467844450 -0.7966533491
1.610000000 0.4332537978 0.8254268510 0.1127346561 0.1972830563 0.1127346561 0.1972830563 -0.4741930489 -0.7797006223
1.620000000 0.4764088524 0.8003741972 0.1230364602 0.1947206557 0.1230364602 0.1947206557 -0.5009653606 -0.7617697226
1.630000000 0.5181139314 0.7730837494 0.1333217373 0.1916151645 0.1333217373 0.1916151645 -0.5270837574 -0.7429122044
1.640000000 0.5582542462 0.7436394522 0.1435617608 0.1879636083 0.1435617608 0.1879636083 -0.5525151787 -0.7231520159
1.650000000 0.5966973015 0.7121040879 0.1537220852 0.1837575259 0.1537220852 0.1837575259 -0.5772072290 -0.7024879936
1.660000000 0.6333582351 0.6786022417 0.1637810634 0.1790076607 0.1637810634 0.1790076607 -0.6011691754 -0.6809992337
1.670000000 0.6681378503 0.6432348536 0.1737010262 0.1737054727 0.1737010262 0.1737054727 -0.6243061858 -0.6586373578
1.680000000 0.7009161726 0.6060842595 0.1834575991 0.1678611849 0.1834575991 0.1678611849 -0.6466542022 -0.6355067421
1.690000000 0.7316299243 0.5672866562 0.1930184441 0.1614765082 0.1930184441 0.1614765082 -0.6681392584 -0.6115891111
1.700000000 0.7601979030 0.5269565765 0.2023574812 0.1545611407 0.2023574812 0.1545611407 -0.6887573483 -0.5869396000
1.710000000 0.7865154986 0.4851940698 0.2114418002 0.1471202910 0.2114418002 0.1471202910 -0.7084826547 -0.5615902864
1.720000000 0.8105424501 0.4421428483 0.2202426078 0.1391638238 0.2202426078 0.1391638238 -0.7272643996 -0.5355536365
1.730000000 0.8322173078 0.3979281134 0.2287394014 0.1307084335 0.2287394014 0.1307084335 -0.7451317276 -0.5089047364
1.740000000 0.8514534400 0.3526648342 0.2368877382 0.1217567731 0.2368877382 0.1217567731 -0.7619810497 -0.4816207184
1.750000000 0.8682341400 0.3065001507 0.2446770105 0.1123333088 0.2446770105 0.1123333088 -0.7778737992 -0.4537944675
1.760000000 0.8825192700 0.2595669550 0.2520720855 0.1024491248 0.2520720855 0.1024491248 -0.7927342764 -0.4254271097
1.770000000 0.8942417873 0.2119914477 0.2590466488 0.09212193584 0.2590466488 0.09212193584 -0.8065729828 -0.3965735491
1.780000000 0.9034089795 0.1639208899 0.2655804560 0.08137244697 0.2655804560 0.08137244697 -0.8193735670 -0.3672716896
1.790000000 0.9100025323 0.1154919373 0.2716445645 0.07021909800 0.2716445645 0.07021909800 -0.8310906744 -0.3375465997
1.800000000 0.9139764845 0.06683895024 0.2772205290 0.05868508341 0.2772205290 0.05868508341 -0.8417719760 -0.3074640434
1.810000000 0.9153617602 0.01810539891 0.2822761774 0.04679084393 0.2822761774 0.04679084393 -0.8513123123 -0.2770279208
1.820000000 0.9141616610 -0.03057192904 0.2868059542 0.03456371852 0.2868059542 0.03456371852 -0.8597950675 -0.2463130288
1.830000000 0.9103526751 -0.07905381275 0.2907742166 0.02202650325 0.2907742166 0.02202650325 -0.8671481494 -0.2153394339
1.840000000 0.9039875565 -0.1272045088 0.2941731486 0.009207018384 0.2941731486 0.009207018384 -0.8733962369 -0.1841576968
1.850000000 0.8950915031 -0.1748902674 0.2969856696 -0.003867641491 0.2969856696 -0.003867641491 -0.8785338247 -0.1528085438
1.860000000 0.8836632507 -0.2219708083 0.2991848403 -0.01716895053 0.2991848403 -0.01716895053 -0.8825242411 -0.1213274410
1.870000000 0.8697759951 -0.2683212722 0.3007729945 -0.03066808863 0.3007729945 -0.03066808863 -0.8854307234 -0.08976595030
1.880000000 0.8534759475 -0.3138144878 0.3017206002 -0.04433377097 0.3017206002 -0.04433377097 -0.8871536877 -0.05815381331
1.890000000 0.8347834229 -0.3583124744 0.3020273403 -0.05813606641 0.3020273403 -0.05813606641 -0.8877930147 -0.02654227514
1.900000000 0.8137905171 -0.4017044420 0.3016780066 -0.07204257485 0.3016780066 -0.07204257485 -0.8872850664 0.005031693869
1.910000000 0.7905621578 -0.4438727236 0.3006700417 -0.08602247082 0.3006700417 -0.08602247082 -0.8856670376 0.03652580945
1.920000000 0.7651402713 -0.4846851989 0.2989912469 -0.1000416674 0.2989912469 -0.1000416674 -0.8829445638 0.06789985488
1.930000000 0.7376326578 -0.5240476744 0.2966369568 -0.1140668917 0.2966369568 -0.1140668917 -0.8790919720 0.09911104343
1.940000000 0.7081214572 -0.5618547802 0.2936149614 -0.1280692770 0.2936149614 -0.1280692770 -0.8741836636 0.1301258806
1.950000000 0.6766688081 -0.5979836761 0.2899019775 -0.1420058151 0.2899019775 -0.1420058151 -0.8681320123 0.1608916982
1.960000000 0.6433950288 -0.6323585215 0.2855200132 -0.1558527434 0.2855200132 -0.1558527434 -0.8610464501 0.1913844816
1.970000000 0.6083976384 -0.6648892340 0.2804603790 -0.1695711340 0.2804603790 -0.1695711340 -0.8528756556 0.2215536457
1.980000000 0.5717565502 -0.6954644525 0.2747267182 -0.1831270613 0.2747267182 -0.1831270613 -0.8436664596 0.2513684302
1.990000000 0.5336020639 -0.7240290425 0.2683297249 -0.1964903806 0.2683297249 -0.1964903806 -0.8334348003 0.2807923333
2.000000000 0.4940439596 -0.7505097639 0.2612715572 -0.2096243170 0.2612715572 -0.2096243170 -0.8221671571 0.3097787592
2.010000000 0.4531781076 -0.7748095625 0.2535656105 -0.2224998074 0.2535656105 -0.2224998074 -0.8099436644 0.3383146431
2.020000000 0.4111411825 -0.7968952740 0.2452135140 -0.2350758390 0.2452135140 -0.2350758390 -0.7966937119 0.3663288443
2.030000000 0.3680523799 -0.8167115731 0.2362408377 -0.2473334305 0.2362408377 -0.2473334305 -0.7825285251 0.3938260253
2.040000000 0.3240210557 -0.8341786904 0.2266481734 -0.2592274715 0.2266481734 -0.2592274715 -0.7674116786 0.4207460561
2.050000000 0.2791866459 -0.8492849238 0.2164595727 -0.2707365174 0.2164595727 -0.2707365174 -0.7513958754 0.4470718432
2.060000000 0.2336748538 -0.8619950477 0.2056916565 -0.2818308577 0.2056916565 -0.2818308577 -0.7345055449 0.4727732573
2.070000000 0.1876055595 -0.8722475815 0.1943553652 -0.2924706272 0.1943553652 -0.2924706272 -0.7167393078 0.4978033724
2.080000000 0.1411176449 -0.8800527618 0.1824812683 -0.3026437446 0.1824812683 -0.3026437446 -0.6981771660 0.5221701327
2.090000000 0.09433986439 -0.8853960833 0.1700809003 -0.3123062205 0.1700809003 -0.3123062205 -0.6787689428 0.5457893316
2.100000000 0.04739994204 -0.8882352104 0.1571828304 -0.3214429430 0.1571828304 -0.3214429430 -0.6586198995 0.5686933799
2.110000000 0.0004323476429 -0.8886025389 0.1438085931 -0.3300229489 0.1438085931 -0.3300229489 -0.6377097328 0.5908169464
2.120000000 -0.04643374597 -0.8865033763 0.1299857579 -0.3380283378 0.1299857579 -0.3380283378 -0.6160928497 0.6121574106
2.130000000 -0.09306649120 -0.8819163996 0.1157380791 -0.3454299970 0.1157380791 -0.3454299970 -0.5937997060 0.6326928312
2.140000000 -0.1393387442 -0.8748943571 0.1010937107 -0.3522064596 0.1010937107 -0.3522064596 -0.5708400731 0.6523790112
2.150000000 -0.1851242025 -0.8654625435 0.08608404602 -0.3583505718 0.08608404602 -0.3583505718 -0.5472881727 0.6712436891
2.160000000 -0.2302903927 -0.8536207763 0.07073304589 -0.3638171888 0.07073304589 -0.3638171888 -0.5231159799 0.6891953514
2.170000000 -0.2747199517 -0.8394404675 0.05507617584 -0.3686154639 0.05507617584 -0.3686154639 -0.4984158238 0.7062910433
2.180000000 -0.3182933410 -0.8229664617 0.03914263935 -0.3727163516 0.03914263935 -0.3727163516 -0.4731835209 0.7224644114
2.190000000 -0.3608795476 -0.8042189676 0.02296432425 -0.3761050962 0.02296432425 -0.3761050962 -0.4474711238 0.7377267737
2.200000000 -0.4023748899 -0.7832867016 0.006574465851 -0.3787759564 0.006574465851 -0.3787759564 -0.4213123887 0.7520652365
2.210000000 -0.4426686534 -0.7602323262 -0.009993679148 -0.3807109287 -0.009993679148 -0.3807109287 -0.3947265666 0.7654407304
2.220000000 -0.4816348987 -0.7350961614 -0.02670718450 -0.3819066898 -0.02670718450 -0.3819066898 -0.3677772477 0.7778980261
2.230000000 -0.5191861355 -0.7079815620 -0.04352960725 -0.3823420578 -0.04352960725 -0.3823420578 -0.3404587241 0.7893439070
2.240000000 -0.5552224641 -0.6789675397 -0.06042955954 -0.3820308975 -0.06042955954 -0.3820308975 -0.3128448419 0.7998552201
2.250000000 -0.5896270216 -0.6481132078 -0.07736853364 -0.3809476941 -0.07736853364 -0.3809476941 -0.2849465506 0.8093682967
2.260000000 -0.6223291488 -0.6155341023 -0.09431407468 -0.3791032266 -0.09431407468 -0.3791032266 -0.2568100439 0.8179067197
2.270000000 -0.6532434583 -0.5813233463 -0.1112314499 -0.3764959175 -0.1112314499 -0.3764959175 -0.2284697544 0.8254666090
2.280000000 -0.6822639632 -0.5455573622 -0.1280808971 -0.3731122520 -0.1280808971 -0.3731122520 -0.1999523844 0.8320156806
2.290000000 -0.7093390481 -0.5083609990 -0.1448345544 -0.3689739936 -0.1448345544 -0.3689739936 -0.1713072460 0.8376118606
2.300000000 -0.7343996927 -0.4698387674 -0.1614489397 -0.3640654741 -0.1614489397 -0.3640654741 -0.1425498301 0.8421653146
2.310000000 -0.7573528791 -0.4300829950 -0.1778951913 -0.3584036367 -0.1778951913 -0.3584036367 -0.1137317365 0.8457667682
2.320000000 -0.7781678978 -0.3892239554 -0.1941351020 -0.3519897092 -0.1941351020 -0.3519897092 -0.08487736525 0.8483583130
2.330000000 -0.7967925960 -0.3473759280 -0.2101381308 -0.3448378556 -0.2101381308 -0.3448378556 -0.05602439101 0.8499733183
2.340000000 -0.8131501983 -0.3046438058 -0.2258665089 -0.3369512556 -0.2258665089 -0.3369512556 -0.02720567129 0.8506161781
2.350000000 -0.8272306922 -0.2611607384 -0.2412864268 -0.3283422058 -0.2412864268 -0.3283422058 0.001546749599 0.8502623645
2.360000000 -0.8390005449 -0.2170475848 -0.2563742675 -0.3190342706 -0.2563742675 -0.3190342706 0.03020009387 0.8489784749
2.370000000 -0.8484006948 -0.1724189346 -0.2710786549 -0.3090199703 -0.2710786549 -0.3090199703 0.05871975944 0.8466824160
2.380000000 -0.8554419136 -0.1274082887 -0.2853873940 -0.2983365983 -0.2853873940 -0.2983365983 0.08707827029 0.8434724371
2.390000000 -0.8601101901 -0.08213896547 -0.2992597049 -0.2869912523 -0.2992597049 -0.2869912523 0.1152398918 0.8392987950
2.400000000 -0.8623652077 -0.03673392336 -0.3126650510 -0.2750018817 -0.3126650510 -0.2750018817 0.1431771636 0.8342017426
2.410000000 -0.8622384753 0.008677783467 -0.3255799739 -0.2623937286 -0.3255799739 -0.2623937286 0.1708605397 0.8281927479
2.420000000 -0.8597354417 0.05397232841 -0.3379704988 -0.2491836921 -0.3379704988 -0.2491836921 0.1982546377 0.8212554537
2.430000000 -0.8548357428 0.09902210323 -0.3498148631 -0.2353973321 -0.3498148631 -0.2353973321 0.2253440949 0.8134605226
2.440000000 -0.8475903184 0.1437056511 -0.3610746292 -0.2210520211 -0.3610746292 -0.2210520211 0.2520779626 0.8047371517
2.450000000 -0.8380242787 0.1879010157 -0.3717434722 -0.2061829399 -0.3717434722 -0.2061829399 0.2784530133 0.7951849046
2.460000000 -0.8261371114 0.2314802057 -0.3817773958 -0.1908055281 -0.3817773958 -0.1908055281 0.3044245239 0.7847639812
2.470000000 -0.8119984697 0.2743307728 -0.3911669378 -0.1749537655 -0.3911669378 -0.1749537655 0.3299760123 0.7735185348
2.480000000 -0.7956517963 0.3163371686 -0.3998905321 -0.1586552027 -0.3998905321 -0.1586552027 0.3550824392 0.7614656872
2.490000000 -0.7771167459 0.3573730577 -0.4079131274 -0.1419335259 -0.4079131274 -0.1419335259 0.3797068881 0.7485972629
2.500000000 -0.7564797510 0.3973384839 -0.4152369505 -0.1248255784 -0.4152369505 -0.1248255784 0.4038510865 0.7349836509
2.510000000 -0.7338010658 0.4361268907 -0.4218229759 -0.1073564655 -0.4218229759 -0.1073564655 0.4274509412 0.7205680818
2.520000000 -0.7091207115 0.4736164044 -0.4276678692 -0.08956033206 -0.4276678692 -0.08956033206 0.4505261288 0.7054458007
2.530000000 -0.6825385866 0.5097226244 -0.4327500210 -0.07146871247 -0.4327500210 -0.07146871247 0.4730253811 0.6895881763
2.540000000 -0.6541316648 0.5443496310 -0.4370628604 -0.05311515710 -0.4370628604 -0.05311515710 0.4949431636 0.6730404640
2.550000000 -0.6239577888 0.5773840018 -0.4405856794 -0.03453187189 -0.4405856794 -0.03453187189 0.5162596578 0.6558239878
2.560000000 -0.5921288073 0.6087581632 -0.4433083990 -0.01575361682 -0.4433083990 -0.01575361682 0.5369379990 0.6379384978
2.570000000 -0.5587358657 0.6383897577 -0.4452362235 0.003185713279 -0.4452362235 0.003185713279 0.5569957259 0.6194502995
2.580000000 -0.5238529348 0.6661761807 -0.4463305691 0.02225020182 -0.4463305691 0.02225020182 0.5763590643 0.6003186387
2.590000000 -0.4876018514 0.6920684735 -0.4466153573 0.04140632757 -0.4466153573 0.04140632757 0.5950681330 0.5806296504
2.600000000 -0.4500842549 0.7159997534 -0.4460708382 0.06061741498 -0.4460708382 0.06061741498 0.6130675842 0.5603666256
2.610000000 -0.4113901714 0.7378807952 -0.4446923172 0.07984769987 -0.4446923172 0.07984769987 0.6303621935 0.5395734703
2.620000000 -0.3716465001 0.7576823810 -0.4424861825 0.09906269394 -0.4424861825 0.09906269394 0.6469377013 0.5182743502
2.630000000 -0.3309641189 0.7753546633 -0.4394446834 0.1182248768 -0.4394446834 0.1182248768 0.6627586923 0.4964765144
2.640000000 -0.2894459358 0.7908241482 -0.4355747591 0.1373004462 -0.4355747591 0.1373004462 0.6778565542 0.4742390370
2.650000000 -0.2472208288 0.8040815372 -0.4308660885 0.1562483609 -0.4308660885 0.1562483609 0.6921514380 0.4515384574
2.660000000 -0.2044067392 0.8150958650 -0.4253436750 0.1750409828 -0.4253436750 0.1750409828 0.7057006718 0.4284479670
2.670000000 -0.1611156813 0.8238102745 -0.4189911899 0.1936335691 -0.4189911899 0.1936335691 0.7184472824 0.4049631179
2.680000000 -0.1174768648 0.8302366691 -0.4118306117 0.2119970787 -0.4118306117 0.2119970787 0.7304053020 0.3811244353
2.690000000 -0.07361069308 0.8343625549 -0.4038703309 0.2300968142 -0.4038703309 0.2300968142 0.7415661075 0.3569577120
2.700000000 -0.02963659890 0.8361498051 -0.3951063095 0.2478896030 -0.3951063095 0.2478896030 0.7518969897 0.3324771470
2.710000000 0.01431995544 0.8356307943 -0.3855704170 0.2653536833 -0.3855704170 0.2653536833 0.7614407867 0.3077321339
2.720000000 0.05813878580 0.8328113853 -0.3752569145 0.2824421385 -0.3752569145 0.2824421385 0.7701152439 0.2827171238
2.730000000 0.1016959357 0.8276740046 -0.3641914462 0.2991297719 -0.3641914462 0.2991297719 0.7779911930 0.2574894980
2.740000000 0.1448732986 0.8202691815 -0.3523851084 0.3153794544 -0.3523851084 0.3153794544 0.7850124648 0.2320570239
2.750000000 0.1875532347 0.8106228153 -0.3398607627 0.3311641551 -0.3398607627 0.3311641551 0.7912010412 0.2064552349
2.760000000 0.2296111759 0.7987363071 -0.3266305051 0.3464461238 -0.3266305051 0.3464461238 0.7965538524 0.1807104866
2.770000000 0.2709387263 0.7846783316 -0.3127155721 0.3611950526 -0.3127155721 0.3611950526 0.8010420565 0.1548432641
2.780000000 0.3114242847 0.7684932754 -0.2981470701 0.3753928814 -0.2981470701 0.3753928814 0.8047173008 0.1288914968
2.790000000 0.3509453185 0.7502012753 -0.2829275035 0.3889850397 -0.2829275035 0.3889850397 0.8074986005 0.1028675285
2.800000000 0.3894062596 0.7298882618 -0.2671004492 0.4019688708 -0.2671004492 0.4019688708 0.8094663399 0.07681097345
2.810000000 0.4267039258 0.7076143761 -0.2506817684 0.4143044836 -0.2506817684 0.4143044836 0.8105675454 0.05074138591
2.820000000 0.4627214282 0.6834199357 -0.2336972607 0.4259641686 -0.2336972607 0.4259641686 0.8108307087 0.02468807611
2.830000000 0.4973779170 0.6574037701 -0.2161789514 0.4369305499 -0.2161789514 0.4369305499 0.8102581388 -0.001322984830
2.840000000 0.5305814828 0.6296416649 -0.1981515730 0.4471725094 -0.1981515730 0.4471725094 0.8088259517 -0.02726582627
2.850000000 0.5622238115 0.6001919544 -0.1796474983 0.4566728836 -0.1796474983 0.4566728836 0.8065918573 -0.05311516592
2.860000000 0.5922402489 0.5691640187 -0.1606920680 0.4653962325 -0.1606920680 0.4653962325 0.8034797649 -0.07884142532
2.870000000 0.6205533442 0.5366478189 -0.1413251091 0.4733442930 -0.1413251091 0.4733442930 0.7995755744 -0.1044238879
2.880000000 0.6470648091 0.5027170183 -0.1215712951 0.4804736337 -0.1215712951 0.4804736337 0.7948318355 -0.1298320431
2.890000000 0.6717293996 0.4674902181 -0.1014690763 0.4867827843 -0.1014690763 0.4867827843 0.7892820494 -0.1550437156
2.900000000 0.6944843733 0.4310676142 -0.08105216903 0.4922552042 -0.08105216903 0.4922552042 0.7829336705 -0.1800341970
2.910000000 0.7152450187 0.3935373429 -0.06035264392 0.4968582701 -0.06035264392 0.4968582701 0.7757687911 -0.2047730065
2.920000000 0.7339859519 0.3550232848 -0.03941012887 0.5006034643 -0.03941012887 0.5006034643 0.7678484150 -0.2292481617
2.930000000 0.7506603373 0.3156337196 -0.01825803713 0.5034541356 -0.01825803713 0.5034541356 0.7591048477 -0.2534141680
2.940000000 0.7652002056 0.2754688327 0.003064830621 0.5054141860 0.003064830621 0.5054141860 0.7496254820 -0.2772695871
2.950000000 0.7775988502 0.2346543892 0.02452134502 0.5064673861 0.02452134502 0.5064673861 0.7393706045 -0.3007742184
2.960000000 0.7878287406 0.1933042580 0.04607364855 0.5066140985 0.04607364855 0.5066140985 0.7283771972 -0.3239136695
2.970000000 0.7958379113 0.1515276079 0.06768253128 0.5058384492 0.06768253128 0.5058384492 0.7166575656 -0.3466653511
2.980000000 0.8016400255 0.1094492001 0.08930908799 0.5041370661 0.08930908799 0.5041370661 0.7042006875 -0.3689954630
2.990000000 0.8052263882 0.06718511772 0.1109167880 0.5015233920 0.1109167880 0.5015233920 0.6910681174 -0.3909055006
3.000000000 0.8065622259 0.02485122955 0.1324597159 0.4979617295 0.1324597159 0.4979617295 0.6772038325 -0.4123360590
3.010000000 0.8056820143 -0.01743259143 0.1539052657 0.4934865341 0.1539052657 0.4934865341 0.6626927789 -0.4333046651
3.020000000 0.8025943528 -0.05955022402 0.1752101810 0.4880832236 0.1752101810 0.4880832236 0.6475049952 -0.4537631574
3.030000000 0.7972845756 -0.1013831929 0.1963335785 0.4817543031 0.1963335785 0.4817543031 0.6316793881 -0.4737053516
3.040000000 0.7898046767 -0.1428185326 0.2172392196 0.4745142629 0.2172392196 0.4745142629 0.6152327278 -0.4931116428
3.050000000 0.7801817864 -0.1837437330 0.2378845558 0.4663620077 0.2378845558 0.4663620077 0.5981616108 -0.5119463440
3.060000000 0.7684203754 -0.2240405323 0.2582326526 0.4573130984 0.2582326526 0.4573130984 0.5805254488 -0.5302241627
3.070000000 0.7545888390 -0.2636052075 0.2782372660 0.4473634865 0.2782372660 0.4473634865 0.5622827999 -0.5478744910
3.080000000 0.7387323590 -0.3023328659 0.2978718715 0.4365481456 0.2978718715 0.4365481456 0.5435123606 -0.5649328392
3.090000000 0.7208732922 -0.3401068327 0.3170836408 0.4248574621 0.3170836408 0.4248574621 0.5241956232 -0.5813452866
3.100000000 0.7010958257 -0.3768374155 0.3358447026 0.4123226266 0.3358447026 0.4123226266 0.5043718200 -0.5971140705
3.110000000 0.6794604784 -0.4124277605 0.3541180163 0.3989604703 0.3541180163 0.3989604703 0.4840616553 -0.6122234511
3.120000000 0.6560077074 -0.4467672568 0.3718543536 0.3847753219 0.3718543536 0.3847753219 0.4632698091 -0.6266375255
3.130000000 0.6308343412 -0.4797815474 0.3890357534 0.3698087111 0.3890357534 0.3698087111 0.4420509293 -0.6403835077
3.140000000 0.6040151096 -0.5113839802 0.4056087583 0.3540627572 0.4056087583 0.3540627572 0.4203805202 -0.6533829733
3.150000000 0.5756069724 -0.5414739801 0.4215497100 0.3375737620 0.4215497100 0.3375737620 0.3983274276 -0.6656877655
3.160000000 0.5457169548 -0.5699923193 0.4368194753 0.3203612352 0.4368194753 0.3203612352 0.3758858420 -0.6772408491
3.170000000 0.5144317330 -0.5968673056 0.4513922257 0.3024577094 0.4513922257 0.3024577094 0.3530936647 -0.6880528657
3.180000000 0.4818231866 -0.6220081283 0.4652277689 0.2838856138 0.4652277689 0.2838856138 0.3299748003 -0.6981128076
3.190000000 0.4480056652 -0.6453739494 0.4782964057 0.2646752474 0.4782964057 0.2646752474 0.3065421048 -0.7073864210
3.200000000 0.4130751901 -0.6669084416 0.4905843855 0.2448674395 0.4905843855 0.2448674395 0.2828429501 -0.7159122602
3.210000000 0.3771171718 -0.6865328649 0.5020302160 0.2244760474 0.5020302160 0.2244760474 0.2588714069 -0.7236080704
3.220000000 0.3402492616 -0.7042264772 0.5126405740 0.2035532463 0.5126405740 0.2035532463 0.2346831623 -0.7305396933
3.230000000 0.3025755298 -0.7199479472 0.5223734744 0.1821254317 0.5223734744 0.1821254317 0.2102857410 -0.7366499814
3.240000000 0.2641908414 -0.7336346029 0.5312033809 0.1602296012 0.5312033809 0.1602296012 0.1857139975 -0.7419576876
3.250000000 0.2252147515 -0.7452838073 0.5391176927 0.1379066616 0.5391176927 0.1379066616 0.1609940534 -0.7464573208
3.260000000 0.1857554820 -0.7548716910 0.5460864447 0.1151920929 0.5460864447 0.1151920929 0.1361465611 -0.7501182427
3.270000000 0.1459153304 -0.7623517664 0.5520982353 0.09212873924 0.5520982353 0.09212873924 0.1112092809 -0.7529886897
3.280000000 0.1058131519 -0.7677398414 0.5571177094 0.06875283746 0.5571177094 0.06875283746 0.08619552254 -0.7549870016
3.290000000 0.06555712417 -0.7710300086 0.5611571303 0.04511183990 0.5611571303 0.04511183990 0.06114493148 -0.7561899945
3.300000000 0.02525632404 -0.7721922270 0.5641726253 0.02124410807 0.5641726253 0.02124410807 0.03607825410 -0.7565436182
3.310000000 -0.01497686889 -0.7712609835 0.5661720183 -0.002804771822 0.5661720183 -0.002804771822 0.01102555538 -0.7560741004
3.320000000 -0.05503431168 -0.7682471941 0.5671448630 -0.02699140809 0.5671448630 -0.02699140809 -0.01398607746 -0.7547820722
3.330000000 -0.09480491387 -0.7631384685 0.5670619465 -0.05127073475 0.5670619465 -0.05127073475 -0.03892911519 -0.7526424328
3.340000000 -0.1341843768 -0.7559860853 0.5659470850 -0.07559851486 0.5659470850 -0.07559851486 -0.06377746410 -0.7497109256
3.350000000 -0.1730672048 -0.7468179373 0.5637658669 -0.09992771364 0.5637658669 -0.09992771364 -0.08849901556 -0.7459111068
3.360000000 -0.2113443750 -0.7356385984 0.5605346536 -0.1242129751 0.5605346536 -0.1242129751 -0.1130724518 -0.7413270750
3.370000000 -0.2489200611 -0.7225152280 0.5562436728 -0.1484074574 0.5562436728 -0.1484074574 -0.1374647613 -0.7359110806
3.380000000 -0.2856969066 -0.7074908515 0.5509041608 -0.1724667309 0.5509041608 -0.1724667309 -0.1616523624 -0.7296957807
3.390000000 -0.3215676630 -0.6905873163 0.5445091425 -0.1963412547 0.5445091425 -0.1963412547 -0.1856086936 -0.7226882352
3.400000000 -0.3564493473 -0.6718852262 0.5370648873 -0.2199848782 0.5370648873 -0.2199848782 -0.2093008222 -0.7148705781
3.410000000 -0.3902536020 -0.6514414223 0.5285982714 -0.2433581334 0.5285982714 -0.2433581334 -0.2327159521 -0.7063033731
3.420000000 -0.4228778658 -0.6292948338 0.5190803348 -0.2663992765 0.5190803348 -0.2663992765 -0.2558048182 -0.6969198907
3.430000000 -0.4542545742 -0.6055359271 0.5085614843 -0.2890786800 0.5085614843 -0.2890786800 -0.2785659191 -0.6868072366
3.440000000 -0.4843049416 -0.5802354802 0.4970367476 -0.3113427214 0.4970367476 -0.3113427214 -0.3009557966 -0.6759268976
3.450000000 -0.5129354871 -0.5534458015 0.4845220196 -0.3331451232 0.4845220196 -0.3331451232 -0.3229588771 -0.6643164608
3.460000000 -0.5400933799 -0.5252671470 0.4710447354 -0.3544476360 0.4710447354 -0.3544476360 -0.3445507697 -0.6519893089
3.470000000 -0.5657126688 -0.4957805758 0.4566161435 -0.3752010728 0.4566161435 -0.3752010728 -0.3656951047 -0.6389360896
3.480000000 -0.5897098289 -0.4650511006 0.4412667721 -0.3953678198 0.4412667721 -0.3953678198 -0.3863934205 -0.6252190470
3.490000000 -0.6120484769 -0.4331864918 0.4250046392 -0.4148933351 0.4250046392 -0.4148933351 -0.4065821188 -0.6107851772
3.500000000 -0.6326766802 -0.4002743442 0.4078799955 -0.4337572507 0.4078799955 -0.4337572507 -0.4262799986 -0.5957198960
3.510000000 -0.6515224753 -0.3663929382 0.3898974181 -0.4518972168 0.3898974181 -0.4518972168 -0.4454357584 -0.5799963223
3.520000000 -0.6685668058 -0.3316515275 0.3711022297 -0.4692901085 0.3711022297 -0.4692901085 -0.4640430276 -0.5636550223
3.530000000 -0.6837723089 -0.2961452248 0.3515256795 -0.4858989637 0.3515256795 -0.4858989637 -0.4820812430 -0.5467151040
3.540000000 -0.6970803904 -0.2599611620 0.3311879656 -0.5016699993 0.3311879656 -0.5016699993 -0.4995129169 -0.5291764159
3.550000000 -0.7084889262 -0.2232088106 0.3101437636 -0.5165951798 0.3101437636 -0.5165951798 -0.5163541931 -0.5110994226
3.560000000 -0.7179765212 -0.1859883000 0.2884114274 -0.5306146676 0.2884114274 -0.5306146676 -0.5325309872 -0.4924480103
3.570000000 -0.7254980029 -0.1483921521 0.2660414949 -0.5437143496 0.2660414949 -0.5437143496 -0.5480817086 -0.4733010429
3.580000000 -0.7310691204 -0.1105295367 0.2430684314 -0.5558556456 0.2430684314 -0.5558556456 -0.5629504158 -0.4536448814
3.590000000 -0.7346829872 -0.07250017765 0.2195384028 -0.5670203391 0.2195384028 -0.5670203391 -0.5771406355 -0.4335207449
3.600000000 -0.7363101665 -0.03440273581 0.1954897604 -0.5771716064 0.1954897604 -0.5771716064 -0.5906371192 -0.4129523568
3.610000000 -0.7359824975 0.003658694717 0.1709668157 -0.5862855418 0.1709668157 -0.5862855418 -0.6034037227 -0.3919487512
3.620000000 -0.7337078498 0.04158560869 0.1460213277 -0.5943609520 0.1460213277 -0.5943609520 -0.6154705630 -0.3705650441
3.630000000 -0.7294735395 0.07927612884 0.1206875420 -0.6013343059 0.1206875420 -0.6013343059 -0.6267576561 -0.3487840329
3.640000000 -0.7233247979 0.1166340552 0.09502398042 -0.6072308788 0.09502398042 -0.6072308788 -0.6373210646 -0.3266733393
3.650000000 -0.7152860517 0.1535632655 0.06907353975 -0.6120129474 0.06907353975 -0.6120129474 -0.6471037410 -0.3042332245
3.660000000 -0.7053582352 0.1899626082 0.04288587647 -0.6156659939 0.04288587647 -0.6156659939 -0.6561191518 -0.2815030096
3.670000000 -0.6936016926 0.2257442205 0.01651165246 -0.6181899876 0.01651165246 -0.6181899876 -0.6643584910 -0.2585094756
3.680000000 -0.6800543601 0.2608177640 -0.009999906677 -0.6195642975 -0.009999906677 -0.6195642975 -0.6717893148 -0.2352700995
3.690000000 -0.6647317474 0.2950840132 -0.03659768699 -0.6197926027 -0.03659768699 -0.6197926027 -0.6784541146 -0.2118312496
3.700000000 -0.6477078398 0.3284661616 -0.06322981136 -0.6188479079 -0.06322981136 -0.6188479079 -0.6842719505 -0.1881953297
3.710000000 -0.6290313229 0.3608810430 -0.08984729124 -0.6167616172 -0.08984729124 -0.6167616172 -0.6893133438 -0.1644145879
3.720000000 -0.6087342718 0.3922339440 -0.1163948213 -0.6134993095 -0.1163948213 -0.6134993095 -0.6935236855 -0.1405028341
3.730000000 -0.5868987912 0.4224601979 -0.1428240911 -0.6090861378 -0.1428240911 -0.6090861378 -0.6969256834 -0.1164949376
3.740000000 -0.5635865820 0.4514859195 -0.1690844479 -0.6035265336 -0.1690844479 -0.6035265336 -0.6995175860 -0.09241887043
3.750000000 -0.5388427528 0.4792227415 -0.1951184543 -0.5968049140 -0.1951184543 -0.5968049140 -0.7012726605 -0.06829916316
3.760000000 -0.5127571538 0.5056191944 -0.2208852113 -0.5889638269 -0.2208852113 -0.5889638269 -0.7022432516 -0.04417051631
3.770000000 -0.4854025976 0.5306130101 -0.2463231154 -0.5799822535 -0.2463231154 -0.5799822535 -0.7023523411 -0.02005427486
3.780000000 -0.4568349854 0.5541226097 -0.2713898858 -0.5698952455 -0.2713898858 -0.5698952455 -0.7016806499 0.004015875796
3.790000000 -0.4271516905 0.5761124869 -0.2960317308 -0.5587088093 -0.2960317308 -0.5587088093 -0.7001792462 0.02801387359
3.800000000 -0.3964321021 0.5965307214 -0.3202054231 -0.5464515465 -0.3202054231 -0.5464515465 -0.6978786436 0.05191160252
3.810000000 -0.3647443640 0.6153066119 -0.3438573990 -0.5331335675 -0.3438573990 -0.5331335675 -0.6947841537 0.07568187116
3.820000000 -0.3321890008 0.6324194941 -0.3669405821 -0.5187782898 -0.3669405821 -0.5187782898 -0.6908762281 0.09929496800
3.830000000 -0.2988516502 0.6478295905 -0.3894229890 -0.5034292789 -0.3894229890 -0.5034292789 -0.6862137870 0.1227300075
3.840000000 -0.2648103199 0.6614790371 -0.4112314403 -0.4870763201 -0.4112314403 -0.4870763201 -0.6807281433 0.1459486122
3.850000000 -0.2301663113 0.6733604308 -0.4323518419 -0.4697850189 -0.4323518419 -0.4697850189 -0.6745052091 0.1689375935
3.860000000 -0.1950101397 0.6834495305 -0.4527272416 -0.4515684882 -0.4527272416 -0.4515684882 -0.6675044001 0.1916607053
3.870000000 -0.1594269805 0.6916987764 -0.4723164469 -0.4324594303 -0.4723164469 -0.4324594303 -0.6597619721 0.2140983879
3.880000000 -0.1235176521 0.6981176371 -0.4910891723 -0.4125007868 -0.4910891723 -0.4125007868 -0.6512897058 0.2362260864
3.890000000 -0.08737472408 0.7026951623 -0.5089992034 -0.3917211838 -0.5089992034 -0.3917211838 -0.6420760707 0.2580110417
3.900000000 -0.05108944470 0.7053966271 -0.5260197554 -0.3701652253 -0.5260197554 -0.3701652253 -0.6321827980 0.2794473381
3.910000000 -0.01475898705 0.7062479599 -0.5420975865 -0.3478599518 -0.5420975865 -0.3478599518 -0.6215531545 0.3004824773
3.920000000 0.02152309016 0.7052500384 -0.5572300813 -0.3248652546 -0.5572300813 -0.3248652546 -0.6102729021 0.3211242584
3.930000000 0.05766254765 0.7023842595 -0.5713562839 -0.3012053961 -0.5713562839 -0.3012053961 -0.5983117359 0.3413288488
3.940000000 0.09356660098 0.6976886351 -0.5844685926 -0.2769359576 -0.5844685926 -0.2769359576 -0.5857091618 0.3610863615
3.950000000 0.1291440045 0.6911794128 -0.5965409708 -0.2521012222 -0.5965409708 -0.2521012222 -0.5724823275 0.3803764196
3.960000000 0.1642987757 0.6828517865 -0.6075268339 -0.2267382647 -0.6075268339 -0.2267382647 -0.5586279021 0.3991653792
3.970000000 0.1989447268 0.6727566913 -0.6174373653 -0.2009066973 -0.6174373653 -0.2009066973 -0.5442065182 0.4174623505
3.980000000 0.2329956974 0.6609247497 -0.6262189726 -0.1746438572 -0.6262189726 -0.1746438572 -0.5291760292 0.4352043139
3.990000000 0.2663543641 0.6473642588 -0.6338757421 -0.1480047261 -0.6338757421 -0.1480047261 -0.5136168335 0.4524190783
4.000000000 0.2989453494 0.6321394426 -0.6403809802 -0.1210368182 -0.6403809802 -0.1210368182 -0.4975100334 0.4690580845
