! Parameter plane de-embed bench export
! Network: dut-narrow-notch
! PortZ0: 50+0j 50+0j
# mhz S RI R 50
40.0000000000000 -0.994585067990225 -0.0583130412909233 0.00541493200977485 -0.0583130412909234 0.00541493200977485 -0.0583130412909234 -0.994585067990225 -0.0583130412909233
40.5000000000000 -0.995268866460033 -0.0521745657546071 0.00473113353996746 -0.0521745657546071 0.00473113353996746 -0.0521745657546071 -0.995268866460033 -0.0521745657546071
41.0000000000000 -0.995869270922597 -0.0461075171623750 0.00413072907740317 -0.0461075171623750 0.00413072907740317 -0.0461075171623750 -0.995869270922597 -0.0461075171623750
41.5000000000000 -0.996389295896814 -0.0401106710147222 0.00361070410318604 -0.0401106710147222 0.00361070410318604 -0.0401106710147222 -0.996389295896814 -0.0401106710147222
42.0000000000000 -0.996831812948778 -0.0341828229473193 0.00316818705122210 -0.0341828229473193 0.00316818705122210 -0.0341828229473193 -0.996831812948778 -0.0341828229473193
42.5000000000000 -0.997199558829401 -0.0283227897416895 0.00280044117059855 -0.0283227897416895 0.00280044117059855 -0.0283227897416895 -0.997199558829401 -0.0283227897416895
43.0000000000000 -0.997495143101739 -0.0225294101235743 0.00250485689826113 -0.0225294101235743 0.00250485689826113 -0.0225294101235743 -0.997495143101739 -0.0225294101235743
43.5000000000000 -0.997721055291816 -0.0168015453753969 0.00227894470818371 -0.0168015453753969 0.00227894470818371 -0.0168015453753969 -0.997721055291816 -0.0168015453753969
44.0000000000000 -0.997879671594523 -0.0111380797862223 0.00212032840547716 -0.0111380797862223 0.00212032840547716 -0.0111380797862223 -0.997879671594523 -0.0111380797862223
44.5000000000000 -0.997973261163998 -0.00553792095993668 0.00202673883600159 -0.00553792095993667 0.00202673883600159 -0.00553792095993667 -0.997973261163998 -0.00553792095993668
45.0000000000000 -0.998003992015968 0.00000000000000 0.00199600798403194 0.00000000000000 0.00199600798403194 0.00000000000000 -0.998003992015968 0.00000000000000
45.5000000000000 -0.997973936567614 0.00547672841297753 0.00202606343238631 0.00547672841297753 0.00202606343238631 0.00547672841297753 -0.997973936567614 0.00547672841297753
46.0000000000000 -0.997885076838834 0.0108932860364498 0.00211492316116618 0.0108932860364498 0.00211492316116618 0.0108932860364498 -0.997885076838834 0.0108932860364498
46.5000000000000 -0.997739309337118 0.0162506711612126 0.00226069066288251 0.0162506711612126 0.00226069066288251 0.0162506711612126 -0.997739309337118 0.0162506711612126
47.0000000000000 -0.997538449646741 0.0215498587754844 0.00246155035325868 0.0215498587754844 0.00246155035325868 0.0215498587754844 -0.997538449646741 0.0215498587754844
47.5000000000000 -0.997284236741584 0.0267918007878375 0.00271576325841633 0.0267918007878375 0.00271576325841633 0.0267918007878375 -0.997284236741584 0.0267918007878375
48.0000000000000 -0.996978337039532 0.0319774263001845 0.00302166296046819 0.0319774263001845 0.00302166296046819 0.0319774263001845 -0.996978337039532 0.0319774263001845
48.5000000000000 -0.996622348215229 0.0371076419230522 0.00337765178477088 0.0371076419230522 0.00337765178477088 0.0371076419230522 -0.996622348215229 0.0371076419230522
49.0000000000000 -0.996217802786766 0.0421833321262913 0.00378219721323394 0.0421833321262913 0.00378219721323394 0.0421833321262913 -0.996217802786766 0.0421833321262913
49.5000000000000 -0.995766171490854 0.0472053596191811 0.00423382850914573 0.0472053596191811 0.00423382850914573 0.0472053596191811 -0.995766171490854 0.0472053596191811
50.0000000000000 -0.995268866460033 0.0521745657546071 0.00473113353996747 0.0521745657546071 0.00473113353996747 0.0521745657546071 -0.995268866460033 0.0521745657546071
