! Parameter plane de-embed bench export
! Network: left-fixture-75ohm
! PortZ0: 75+0j 75+0j
# mhz S RI R 75
8.00000000000000 -2.22044604925031e-16 1.77635683940025e-15 0.994765008041003 -0.0385091878655857 0.994765008041003 -0.0385091878655857 -2.22044604925031e-16 1.77635683940025e-15
15.7142857142857 -6.93889390390723e-17 -8.88178419700125e-16 0.992636220517727 -0.0755891029789675 0.992636220517727 -0.0755891029789675 -6.93889390390723e-17 -8.88178419700125e-16
23.4285714285714 -2.22044604925031e-16 -8.88178419700125e-16 0.989125759864579 -0.112563803885632 0.989125759864579 -0.112563803885632 -2.22044604925031e-16 -8.88178419700125e-16
31.1428571428571 -2.77555756156289e-16 -1.77635683940025e-15 0.984238512372282 -0.149381824651064 0.984238512372282 -0.149381824651064 -2.77555756156289e-16 -1.77635683940025e-15
38.8571428571429 1.11022302462516e-16 8.88178419700125e-16 0.977981280712751 -0.185991917427427 0.977981280712751 -0.185991917427427 1.11022302462516e-16 8.88178419700125e-16
46.5714285714286 -5.55111512312578e-17 0.00000000000000 0.970362774470297 -0.222343123786616 0.970362774470297 -0.222343123786616 -5.55111512312578e-17 0.00000000000000
54.2857142857143 1.11022302462516e-16 8.88178419700125e-16 0.961393598018553 -0.258384845650483 0.961393598018553 -0.258384845650483 1.11022302462516e-16 8.88178419700125e-16
62.0000000000000 2.22044604925031e-16 4.44089209850063e-16 0.951086235760007 -0.294066915719438 0.951086235760007 -0.294066915719438 2.22044604925031e-16 4.44089209850063e-16
69.7142857142857 1.11022302462516e-16 6.66133814775094e-16 0.939455034748673 -0.329339667301484 0.939455034748673 -0.329339667301484 1.11022302462516e-16 6.66133814775094e-16
77.4285714285714 1.11022302462516e-16 2.22044604925031e-16 0.926516184720100 -0.364154003444413 0.926516184720100 -0.364154003444413 1.11022302462516e-16 2.22044604925031e-16
85.1428571428571 2.22044604925031e-16 0.00000000000000 0.912287695556503 -0.398461465274985 0.912287695556503 -0.398461465274985 2.22044604925031e-16 0.00000000000000
92.8571428571429 0.00000000000000 0.00000000000000 0.896789372218402 -0.432214299449946 0.896789372218402 -0.432214299449946 0.00000000000000 0.00000000000000
100.571428571429 1.11022302462516e-16 2.22044604925031e-16 0.880042787177636 -0.465365524625001 0.880042787177636 -0.465365524625001 1.11022302462516e-16 2.22044604925031e-16
108.285714285714 2.77555756156289e-16 6.66133814775094e-16 0.862071250390147 -0.497868996849223 0.862071250390147 -0.497868996849223 2.77555756156289e-16 6.66133814775094e-16
116.000000000000 -1.11022302462516e-16 -2.22044604925031e-16 0.842899776850322 -0.529679473793879 0.842899776850322 -0.529679473793879 -1.11022302462516e-16 -2.22044604925031e-16
