! Parameter plane de-embed bench export
! Network: measurement-cascaded
! PortZ0: 50+0j 50+0j
# mhz S RI R 50
40.0000000000000 -0.855540167857807 0.484680719690582 -0.0236295060095173 -0.0517514298890535 -0.0236295060095166 -0.0517514298890465 -0.905371868442385 0.395079654234237
40.5000000000000 -0.849429807999929 0.495856344078334 -0.0215093916341698 -0.0460704062007558 -0.0215093916341722 -0.0460704062007551 -0.900952393834142 0.406215437712319
41.0000000000000 -0.843204446379153 0.506857369159458 -0.0192884535692116 -0.0405300727319765 -0.0192884535692066 -0.0405300727319684 -0.896410356843379 0.417214637638033
41.5000000000000 -0.836869029731012 0.517685794866185 -0.0169683000558073 -0.0351225444598259 -0.0169683000558116 -0.0351225444598313 -0.891441541487218 0.427931903601381
42.0000000000000 -0.830428305113141 0.528343608381565 -0.0145570334328584 -0.0298539110985626 -0.0145570334328493 -0.0298539110985487 -0.886360975443566 0.438510225670138
42.5000000000000 -0.823886830366702 0.538832782359250 -0.0120588342360012 -0.0247223328821488 -0.0120588342359973 -0.0247223328821526 -0.881172610708342 0.448951296401847
43.0000000000000 -0.817248983926768 0.549155273433326 -0.00947771008952748 -0.0197259897926778 -0.00947771008953424 -0.0197259897926756 -0.875880231698513 0.459256786054282
43.5000000000000 -0.810518974024787 0.559313020982408 -0.00681750480794575 -0.0148630826656464 -0.00681750480796950 -0.0148630826656486 -0.870487464246973 0.469428341577529
44.0000000000000 -0.803700847323232 0.569307946116744 -0.00408190693537772 -0.0101318340763748 -0.00408190693538302 -0.0101318340763896 -0.864997784041554 0.479467585821092
44.5000000000000 -0.796798497020075 0.579141950860381 -0.00127445775984506 -0.00553048903505293 -0.00127445775990509 -0.00553048903512376 -0.859414524544741 0.489376116928908
45.0000000000000 -0.789815670458034 0.588816917503786 0.00160144116293710 -0.00105731551475814 0.00160144116290439 -0.00105731551485633 -0.853740884428208 0.499155507898271
45.5000000000000 -0.782755976271494 0.598334708105004 0.00454252094394620 0.00328939516599770 0.00454252094384344 0.00328939516597870 -0.847979934554076 0.508807306281416
46.0000000000000 -0.775622891101520 0.607697164120075 0.00754563872325805 0.00751132808710174 0.00754563872320801 0.00751132808706245 -0.842134624532626 0.518333034010929
46.5000000000000 -0.768419765907562 0.616906106145538 0.0106077714323385 0.0116101445801653 0.0106077714323298 0.0116101445801746 -0.836207788884242 0.527734187332325
47.0000000000000 -0.760983776735633 0.625828115067207 0.0137242121678114 0.0155860672696467 0.0137242121677978 0.0155860672696377 -0.830202154618259 0.537012250611211
47.5000000000000 -0.753459958920297 0.634575021558457 0.0168927536241721 0.0194411297007413 0.0168927536241839 0.0194411297007377 -0.824120344414603 0.546168673361843
48.0000000000000 -0.745879276398378 0.643171034535674 0.0201109220603039 0.0231771506931575 0.0201109220603151 0.0231771506931686 -0.817964881213500 0.555204879122788
48.5000000000000 -0.738244638574913 0.651618010734785 0.0233761132671442 0.0267957493284636 0.0233761132671511 0.0267957493284641 -0.811738193699978 0.564122267415464
49.0000000000000 -0.730558852739250 0.659917783030061 0.0266858182843945 0.0302985199693233 0.0266858182844025 0.0302985199693317 -0.805442620753777 0.572922212686982
49.5000000000000 -0.722824628609960 0.668072160637803 0.0300376189817621 0.0336870325297745 0.0300376189817637 0.0336870325297767 -0.799080415752707 0.581606064618373
50.0000000000000 -0.715044582620567 0.676082929356869 0.0334291838942736 0.0369628327814277 0.0334291838942722 0.0369628327814233 -0.792653750627367 0.590175148468294
