! Parameter plane de-embed bench export
! Network: right-fixture-50ohm
! PortZ0: 50+0j 50+0j
# mhz S RI R 50
11.0000000000000 3.07913416985883e-16 -8.88178419700125e-16 0.993787173299428 -0.0643524589309568 0.993787173299428 -0.0643524589309568 3.07913416985883e-16 -8.88178419700125e-16
21.0000000000000 3.33066907387547e-16 8.88178419700125e-16 0.988289673481944 -0.122628324924874 0.988289673481944 -0.122628324924874 3.33066907387547e-16 8.88178419700125e-16
31.0000000000000 1.11022302462516e-16 -4.44089209850063e-16 0.979377843750079 -0.180480536225860 0.979377843750079 -0.180480536225860 1.11022302462516e-16 -4.44089209850063e-16
41.0000000000000 -2.22044604925031e-16 0.00000000000000 0.967082472573713 -0.237709225789919 0.967082472573713 -0.237709225789919 -2.22044604925031e-16 0.00000000000000
51.0000000000000 5.55111512312578e-17 2.22044604925031e-16 0.951446037836347 -0.294116680707582 0.951446037836347 -0.294116680707582 5.55111512312578e-17 2.22044604925031e-16
61.0000000000000 -2.77555756156289e-16 -4.44089209850063e-16 0.932522560083081 -0.349508025259828 0.932522560083081 -0.349508025259828 -2.77555756156289e-16 -4.44089209850063e-16
71.0000000000000 3.33066907387547e-16 4.44089209850063e-16 0.910377415891159 -0.403691894172108 0.910377415891159 -0.403691894172108 3.33066907387547e-16 4.44089209850063e-16
81.0000000000000 -5.55111512312578e-17 2.22044604925031e-16 0.885087112007845 -0.456481093740519 0.885087112007845 -0.456481093740519 -5.55111512312578e-17 2.22044604925031e-16
91.0000000000000 -5.55111512312578e-17 -1.11022302462516e-16 0.856739021035938 -0.507693248546118 0.856739021035938 -0.507693248546118 -5.55111512312578e-17 -1.11022302462516e-16
101.000000000000 3.33066907387547e-16 3.33066907387547e-16 0.825431079580079 -0.557151431523059 0.825431079580079 -0.557151431523059 3.33066907387547e-16 3.33066907387547e-16
111.000000000000 1.11022302462516e-16 3.33066907387547e-16 0.791271449896677 -0.604684775203856 0.791271449896677 -0.604684775203856 1.11022302462516e-16 3.33066907387547e-16
121.000000000000 -1.11022302462516e-16 -2.22044604925031e-16 0.754378146216399 -0.650129062030022 0.754378146216399 -0.650129062030022 -1.11022302462516e-16 -2.22044604925031e-16
