! Generated by 参数面去嵌台 (reference-plane de-embed bench)
# GHz S RI R 50
0.1000000000 -0.1391459453 -0.3459380340 0.8608540547 -0.3459380340 0.8608540547 -0.3459380340 -0.1391459453 -0.3459380340
0.1100000000 -0.1641645938 -0.3702476917 0.8358354062 -0.3702476917 0.8358354062 -0.3702476917 -0.1641645938 -0.3702476917
0.1200000000 -0.1901696240 -0.3922411554 0.8098303760 -0.3922411554 0.8098303760 -0.3922411554 -0.1901696240 -0.3922411554
0.1300000000 -0.2169079454 -0.4119290000 0.7830920546 -0.4119290000 0.7830920546 -0.4119290000 -0.2169079454 -0.4119290000
0.1400000000 -0.2441430720 -0.4293507587 0.7558569280 -0.4293507587 0.7558569280 -0.4293507587 -0.2441430720 -0.4293507587
0.1500000000 -0.2716579145 -0.4445702862 0.7283420855 -0.4445702862 0.7283420855 -0.4445702862 -0.2716579145 -0.4445702862
0.1600000000 -0.2992565377 -0.4576711139 0.7007434623 -0.4576711139 0.7007434623 -0.4576711139 -0.2992565377 -0.4576711139
0.1700000000 -0.3267649995 -0.4687519937 0.6732350005 -0.4687519937 0.6732350005 -0.4687519937 -0.3267649995 -0.4687519937
0.1800000000 -0.3540314185 -0.4779227704 0.6459685815 -0.4779227704 0.6459685815 -0.4779227704 -0.3540314185 -0.4779227704
0.1900000000 -0.3809254203 -0.4853006777 0.6190745797 -0.4853006777 0.6190745797 -0.4853006777 -0.3809254203 -0.4853006777
0.2000000000 -0.4073371106 -0.4910071076 0.5926628894 -0.4910071076 0.5926628894 -0.4910071076 -0.4073371106 -0.4910071076
0.2100000000 -0.4331757121 -0.4951648725 0.5668242879 -0.4951648725 0.5668242879 -0.4951648725 -0.4331757121 -0.4951648725
0.2200000000 -0.4583679839 -0.4978959469 0.5416320161 -0.4978959469 0.5416320161 -0.4978959469 -0.4583679839 -0.4978959469
0.2300000000 -0.4828565246 -0.4993196620 0.5171434754 -0.4993196620 0.5171434754 -0.4993196620 -0.4828565246 -0.4993196620
0.2400000000 -0.5065980381 -0.4995513101 0.4934019619 -0.4995513101 0.4934019619 -0.4995513101 -0.5065980381 -0.4995513101
0.2500000000 -0.5295616252 -0.4987011126 0.4704383748 -0.4987011126 0.4704383748 -0.4987011126 -0.5295616252 -0.4987011126
0.2600000000 -0.5517271473 -0.4968734983 0.4482728527 -0.4968734983 0.4482728527 -0.4968734983 -0.5517271473 -0.4968734983
0.2700000000 -0.5730836905 -0.4941666457 0.4269163095 -0.4941666457 0.4269163095 -0.4941666457 -0.5730836905 -0.4941666457
0.2800000000 -0.5936281533 -0.4906722389 0.4063718467 -0.4906722389 0.4063718467 -0.4906722389 -0.5936281533 -0.4906722389
0.2900000000 -0.6133639649 -0.4864753977 0.3866360351 -0.4864753977 0.3866360351 -0.4864753977 -0.6133639649 -0.4864753977
0.3000000000 -0.6322999389 -0.4816547421 0.3677000611 -0.4816547421 0.3677000611 -0.4816547421 -0.6322999389 -0.4816547421
0.3100000000 -0.6504492595 -0.4762825599 0.3495507405 -0.4762825599 0.3495507405 -0.4762825599 -0.6504492595 -0.4762825599
0.3200000000 -0.6678285947 -0.4704250493 0.3321714053 -0.4704250493 0.3321714053 -0.4704250493 -0.6678285947 -0.4704250493
0.3300000000 -0.6844573274 -0.4641426141 0.3155426726 -0.4641426141 0.3155426726 -0.4641426141 -0.6844573274 -0.4641426141
0.3400000000 -0.7003568955 -0.4574901931 0.2996431045 -0.4574901931 0.2996431045 -0.4574901931 -0.7003568955 -0.4574901931
0.3500000000 -0.7155502308 -0.4505176083 0.2844497692 -0.4505176083 0.2844497692 -0.4505176083 -0.7155502308 -0.4505176083
0.3600000000 -0.7300612844 -0.4432699214 0.2699387156 -0.4432699214 0.2699387156 -0.4432699214 -0.7300612844 -0.4432699214
0.3700000000 -0.7439146317 -0.4357877883 0.2560853683 -0.4357877883 0.2560853683 -0.4357877883 -0.7439146317 -0.4357877883
0.3800000000 -0.7571351435 -0.4281078066 0.2428648565 -0.4281078066 0.2428648565 -0.4281078066 -0.7571351435 -0.4281078066
0.3900000000 -0.7697477176 -0.4202628498 0.2302522824 -0.4202628498 0.2302522824 -0.4202628498 -0.7697477176 -0.4202628498
0.4000000000 -0.7817770613 -0.4122823863 0.2182229387 -0.4122823863 0.2182229387 -0.4122823863 -0.7817770613 -0.4122823863
0.4100000000 -0.7932475163 -0.4041927800 0.2067524837 -0.4041927800 0.2067524837 -0.4041927800 -0.7932475163 -0.4041927800
0.4200000000 -0.8041829227 -0.3960175721 0.1958170773 -0.3960175721 0.1958170773 -0.3960175721 -0.8041829227 -0.3960175721
0.4300000000 -0.8146065127 -0.3877777429 0.1853934873 -0.3877777429 0.1853934873 -0.3877777429 -0.8146065127 -0.3877777429
0.4400000000 -0.8245408316 -0.3794919541 0.1754591684 -0.3794919541 0.1754591684 -0.3794919541 -0.8245408316 -0.3794919541
0.4500000000 -0.8340076806 -0.3711767725 0.1659923194 -0.3711767725 0.1659923194 -0.3711767725 -0.8340076806 -0.3711767725
0.4600000000 -0.8430280780 -0.3628468745 0.1569719220 -0.3628468745 0.1569719220 -0.3628468745 -0.8430280780 -0.3628468745
0.4700000000 -0.8516222350 -0.3545152333 0.1483777650 -0.3545152333 0.1483777650 -0.3545152333 -0.8516222350 -0.3545152333
0.4800000000 -0.8598095441 -0.3461932902 0.1401904559 -0.3461932902 0.1401904559 -0.3461932902 -0.8598095441 -0.3461932902
0.4900000000 -0.8676085776 -0.3378911092 0.1323914224 -0.3378911092 0.1323914224 -0.3378911092 -0.8676085776 -0.3378911092
0.5000000000 -0.8750370934 -0.3296175185 0.1249629066 -0.3296175185 0.1249629066 -0.3296175185 -0.8750370934 -0.3296175185
0.5100000000 -0.8821120479 -0.3213802379 0.1178879521 -0.3213802379 0.1178879521 -0.3213802379 -0.8821120479 -0.3213802379
0.5200000000 -0.8888496131 -0.3131859945 0.1111503869 -0.3131859945 0.1111503869 -0.3131859945 -0.8888496131 -0.3131859945
0.5300000000 -0.8952651977 -0.3050406266 0.1047348023 -0.3050406266 0.1047348023 -0.3050406266 -0.8952651977 -0.3050406266
0.5400000000 -0.9013734710 -0.2969491781 0.09862652896 -0.2969491781 0.09862652896 -0.2969491781 -0.9013734710 -0.2969491781
0.5500000000 -0.9071883888 -0.2889159834 0.09281161118 -0.2889159834 0.09281161118 -0.2889159834 -0.9071883888 -0.2889159834
0.5600000000 -0.9127232201 -0.2809447431 0.08727677987 -0.2809447431 0.08727677987 -0.2809447431 -0.9127232201 -0.2809447431
0.5700000000 -0.9179905754 -0.2730385933 0.08200942459 -0.2730385933 0.08200942459 -0.2730385933 -0.9179905754 -0.2730385933
0.5800000000 -0.9230024346 -0.2652001671 0.07699756540 -0.2652001671 0.07699756540 -0.2652001671 -0.9230024346 -0.2652001671
0.5900000000 -0.9277701753 -0.2574316497 0.07222982466 -0.2574316497 0.07222982466 -0.2574316497 -0.9277701753 -0.2574316497
0.6000000000 -0.9323046009 -0.2497348285 0.06769539909 -0.2497348285 0.06769539909 -0.2497348285 -0.9323046009 -0.2497348285
0.6100000000 -0.9366159676 -0.2421111377 0.06338403238 -0.2421111377 0.06338403238 -0.2421111377 -0.9366159676 -0.2421111377
0.6200000000 -0.9407140116 -0.2345616983 0.05928598836 -0.2345616983 0.05928598836 -0.2345616983 -0.9407140116 -0.2345616983
0.6300000000 -0.9446079749 -0.2270873539 0.05539202507 -0.2270873539 0.05539202507 -0.2270873539 -0.9446079749 -0.2270873539
0.6400000000 -0.9483066304 -0.2196887030 0.05169336957 -0.2196887030 0.05169336957 -0.2196887030 -0.9483066304 -0.2196887030
0.6500000000 -0.9518183062 -0.2123661277 0.04818169379 -0.2123661277 0.04818169379 -0.2123661277 -0.9518183062 -0.2123661277
0.6600000000 -0.9551509087 -0.2051198195 0.04484909127 -0.2051198195 0.04484909127 -0.2051198195 -0.9551509087 -0.2051198195
0.6700000000 -0.9583119450 -0.1979498025 0.04168805497 -0.1979498025 0.04168805497 -0.1979498025 -0.9583119450 -0.1979498025
0.6800000000 -0.9613085440 -0.1908559539 0.03869145599 -0.1908559539 0.03869145599 -0.1908559539 -0.9613085440 -0.1908559539
0.6900000000 -0.9641474766 -0.1838380225 0.03585252335 -0.1838380225 0.03585252335 -0.1838380225 -0.9641474766 -0.1838380225
0.7000000000 -0.9668351753 -0.1768956452 0.03316482474 -0.1768956452 0.03316482474 -0.1768956452 -0.9668351753 -0.1768956452
0.7100000000 -0.9693777518 -0.1700283618 0.03062224821 -0.1700283618 0.03062224821 -0.1700283618 -0.9693777518 -0.1700283618
0.7200000000 -0.9717810152 -0.1632356283 0.02821898482 -0.1632356283 0.02821898482 -0.1632356283 -0.9717810152 -0.1632356283
0.7300000000 -0.9740504878 -0.1565168282 0.02594951219 -0.1565168282 0.02594951219 -0.1565168282 -0.9740504878 -0.1565168282
0.7400000000 -0.9761914211 -0.1498712834 0.02380857888 -0.1498712834 0.02380857888 -0.1498712834 -0.9761914211 -0.1498712834
0.7500000000 -0.9782088103 -0.1432982633 0.02179118970 -0.1432982633 0.02179118970 -0.1432982633 -0.9782088103 -0.1432982633
0.7600000000 -0.9801074082 -0.1367969933 0.01989259175 -0.1367969933 0.01989259175 -0.1367969933 -0.9801074082 -0.1367969933
0.7700000000 -0.9818917388 -0.1303666622 0.01810826121 -0.1303666622 0.01810826121 -0.1303666622 -0.9818917388 -0.1303666622
0.7800000000 -0.9835661090 -0.1240064284 0.01643389096 -0.1240064284 0.01643389096 -0.1240064284 -0.9835661090 -0.1240064284
0.7900000000 -0.9851346212 -0.1177154262 0.01486537877 -0.1177154262 0.01486537877 -0.1177154262 -0.9851346212 -0.1177154262
0.8000000000 -0.9866011837 -0.1114927709 0.01339881627 -0.1114927709 0.01339881627 -0.1114927709 -0.9866011837 -0.1114927709
0.8100000000 -0.9879695216 -0.1053375631 0.01203047843 -0.1053375631 0.01203047843 -0.1053375631 -0.9879695216 -0.1053375631
0.8200000000 -0.9892431863 -0.09924889297 0.01075681374 -0.09924889297 0.01075681374 -0.09924889297 -0.9892431863 -0.09924889297
0.8300000000 -0.9904255651 -0.09322584396 0.009574434873 -0.09322584396 0.009574434873 -0.09322584396 -0.9904255651 -0.09322584396
0.8400000000 -0.9915198901 -0.08726749570 0.008480109916 -0.08726749570 0.008480109916 -0.08726749570 -0.9915198901 -0.08726749570
0.8500000000 -0.9925292459 -0.08137292688 0.007470754082 -0.08137292688 0.007470754082 -0.08137292688 -0.9925292459 -0.08137292688
0.8600000000 -0.9934565781 -0.07554121773 0.006543421905 -0.07554121773 0.006543421905 -0.07554121773 -0.9934565781 -0.07554121773
0.8700000000 -0.9943047001 -0.06977145208 0.005695299879 -0.06977145208 0.005695299879 -0.06977145208 -0.9943047001 -0.06977145208
0.8800000000 -0.9950763005 -0.06406271924 0.004923699514 -0.06406271924 0.004923699514 -0.06406271924 -0.9950763005 -0.06406271924
0.8900000000 -0.9957739492 -0.05841411564 0.004226050784 -0.05841411564 0.004226050784 -0.05841411564 -0.9957739492 -0.05841411564
0.9000000000 -0.9964001040 -0.05282474615 0.003599895954 -0.05282474615 0.003599895954 -0.05282474615 -0.9964001040 -0.05282474615
0.9100000000 -0.9969571162 -0.04729372536 0.003042883751 -0.04729372536 0.003042883751 -0.04729372536 -0.9969571162 -0.04729372536
0.9200000000 -0.9974472361 -0.04182017854 0.002552763870 -0.04182017854 0.002552763870 -0.04182017854 -0.9974472361 -0.04182017854
0.9300000000 -0.9978726182 -0.03640324253 0.002127381787 -0.03640324253 0.002127381787 -0.03640324253 -0.9978726182 -0.03640324253
0.9400000000 -0.9982353261 -0.03104206647 0.001764673866 -0.03104206647 0.001764673866 -0.03104206647 -0.9982353261 -0.03104206647
0.9500000000 -0.9985373373 -0.02573581239 0.001462662739 -0.02573581239 0.001462662739 -0.02573581239 -0.9985373373 -0.02573581239
0.9600000000 -0.9987805471 -0.02048365572 0.001219452946 -0.02048365572 0.001219452946 -0.02048365572 -0.9987805471 -0.02048365572
0.9700000000 -0.9989667732 -0.01528478566 0.001033226821 -0.01528478566 0.001033226821 -0.01528478566 -0.9989667732 -0.01528478566
0.9800000000 -0.9990977594 -0.01013840552 0.0009022406006 -0.01013840552 0.0009022406006 -0.01013840552 -0.9990977594 -0.01013840552
0.9900000000 -0.9991751792 -0.005043732926 0.0008248207536 -0.005043732926 0.0008248207536 -0.005043732926 -0.9991751792 -0.005043732926
1.000000000 -0.9992006395 0.000000000 0.0007993605116 0.000000000 0.0007993605116 0.000000000 -0.9992006395 0.000000000
1.010000000 -0.9991756834 0.004993546551 0.0008243165905 0.004993546551 0.0008243165905 0.004993546551 -0.9991756834 0.004993546551
1.020000000 -0.9991017939 0.009937645380 0.0008982060910 0.009937645380 0.0008982060910 0.009937645380 -0.9991017939 0.009937645380
1.030000000 -0.9989803964 0.01483302050 0.001019603569 0.01483302050 0.001019603569 0.01483302050 -0.9989803964 0.01483302050
1.040000000 -0.9988128617 0.01968038131 0.001187138266 0.01968038131 0.001187138266 0.01968038131 -0.9988128617 0.01968038131
1.050000000 -0.9986005085 0.02448042269 0.001399491485 0.02448042269 0.001399491485 0.02448042269 -0.9986005085 0.02448042269
1.060000000 -0.9983446059 0.02923382509 0.001655394114 0.02923382509 0.001655394114 0.02923382509 -0.9983446059 0.02923382509
1.070000000 -0.9980463757 0.03394125469 0.001953624280 0.03394125469 0.001953624280 0.03394125469 -0.9980463757 0.03394125469
1.080000000 -0.9977069949 0.03860336352 0.002293005122 0.03860336352 0.002293005122 0.03860336352 -0.9977069949 0.03860336352
1.090000000 -0.9973275973 0.04322078965 0.002672402693 0.04322078965 0.002672402693 0.04322078965 -0.9973275973 0.04322078965
1.100000000 -0.9969092760 0.04779415741 0.003090723966 0.04779415741 0.003090723966 0.04779415741 -0.9969092760 0.04779415741
1.110000000 -0.9964530851 0.05232407756 0.003546914946 0.05232407756 0.003546914946 0.05232407756 -0.9964530851 0.05232407756
1.120000000 -0.9959600411 0.05681114754 0.004039958881 0.05681114754 0.004039958881 0.05681114754 -0.9959600411 0.05681114754
1.130000000 -0.9954311254 0.06125595168 0.004568874565 0.06125595168 0.004568874565 0.06125595168 -0.9954311254 0.06125595168
1.140000000 -0.9948672853 0.06565906147 0.005132714736 0.06565906147 0.005132714736 0.06565906147 -0.9948672853 0.06565906147
1.150000000 -0.9942694355 0.07002103578 0.005730564546 0.07002103578 0.005730564546 0.07002103578 -0.9942694355 0.07002103578
1.160000000 -0.9936384599 0.07434242110 0.006361540115 0.07434242110 0.006361540115 0.07434242110 -0.9936384599 0.07434242110
1.170000000 -0.9929752128 0.07862375184 0.007024787162 0.07862375184 0.007024787162 0.07862375184 -0.9929752128 0.07862375184
1.180000000 -0.9922805203 0.08286555055 0.007719479699 0.08286555055 0.007719479699 0.08286555055 -0.9922805203 0.08286555055
1.190000000 -0.9915551812 0.08706832819 0.008444818796 0.08706832819 0.008444818796 0.08706832819 -0.9915551812 0.08706832819
1.200000000 -0.9907999686 0.09123258441 0.009200031405 0.09123258441 0.009200031405 0.09123258441 -0.9907999686 0.09123258441
1.210000000 -0.9900156308 0.09535880776 0.009984369247 0.09535880776 0.009984369247 0.09535880776 -0.9900156308 0.09535880776
1.220000000 -0.9892028923 0.09944747600 0.01079710775 0.09944747600 0.01079710775 0.09944747600 -0.9892028923 0.09944747600
1.230000000 -0.9883624550 0.1034990563 0.01163754503 0.1034990563 0.01163754503 0.1034990563 -0.9883624550 0.1034990563
1.240000000 -0.9874949990 0.1075140057 0.01250500097 0.1075140057 0.01250500097 0.1075140057 -0.9874949990 0.1075140057
1.250000000 -0.9866011837 0.1114927709 0.01339881627 0.1114927709 0.01339881627 0.1114927709 -0.9866011837 0.1114927709
1.260000000 -0.9856816484 0.1154357891 0.01431835157 0.1154357891 0.01431835157 0.1154357891 -0.9856816484 0.1154357891
1.270000000 -0.9847370133 0.1193434877 0.01526298670 0.1193434877 0.01526298670 0.1193434877 -0.9847370133 0.1193434877
1.280000000 -0.9837678802 0.1232162850 0.01623211980 0.1232162850 0.01623211980 0.1232162850 -0.9837678802 0.1232162850
1.290000000 -0.9827748334 0.1270545901 0.01722516664 0.1270545901 0.01722516664 0.1270545901 -0.9827748334 0.1270545901
1.300000000 -0.9817584401 0.1308588035 0.01824155989 0.1308588035 0.01824155989 0.1308588035 -0.9817584401 0.1308588035
1.310000000 -0.9807192516 0.1346293167 0.01928074843 0.1346293167 0.01928074843 0.1346293167 -0.9807192516 0.1346293167
1.320000000 -0.9796578033 0.1383665133 0.02034219672 0.1383665133 0.02034219672 0.1383665133 -0.9796578033 0.1383665133
1.330000000 -0.9785746158 0.1420707683 0.02142538418 0.1420707683 0.02142538418 0.1420707683 -0.9785746158 0.1420707683
1.340000000 -0.9774701954 0.1457424490 0.02252980462 0.1457424490 0.02252980462 0.1457424490 -0.9774701954 0.1457424490
1.350000000 -0.9763450344 0.1493819151 0.02365496563 0.1493819151 0.02365496563 0.1493819151 -0.9763450344 0.1493819151
1.360000000 -0.9751996119 0.1529895186 0.02480038812 0.1529895186 0.02480038812 0.1529895186 -0.9751996119 0.1529895186
1.370000000 -0.9740343942 0.1565656043 0.02596560575 0.1565656043 0.02596560575 0.1565656043 -0.9740343942 0.1565656043
1.380000000 -0.9728498355 0.1601105097 0.02715016449 0.1601105097 0.02715016449 0.1601105097 -0.9728498355 0.1601105097
1.390000000 -0.9716463779 0.1636245657 0.02835362212 0.1636245657 0.02835362212 0.1636245657 -0.9716463779 0.1636245657
1.400000000 -0.9704244522 0.1671080962 0.02957554783 0.1671080962 0.02957554783 0.1671080962 -0.9704244522 0.1671080962
1.410000000 -0.9691844783 0.1705614187 0.03081552174 0.1705614187 0.03081552174 0.1705614187 -0.9691844783 0.1705614187
1.420000000 -0.9679268654 0.1739848444 0.03207313456 0.1739848444 0.03207313456 0.1739848444 -0.9679268654 0.1739848444
1.430000000 -0.9666520128 0.1773786782 0.03334798718 0.1773786782 0.03334798718 0.1773786782 -0.9666520128 0.1773786782
1.440000000 -0.9653603097 0.1807432190 0.03463969028 0.1807432190 0.03463969028 0.1807432190 -0.9653603097 0.1807432190
1.450000000 -0.9640521360 0.1840787600 0.03594786401 0.1840787600 0.03594786401 0.1840787600 -0.9640521360 0.1840787600
1.460000000 -0.9627278624 0.1873855885 0.03727213765 0.1873855885 0.03727213765 0.1873855885 -0.9627278624 0.1873855885
1.470000000 -0.9613878507 0.1906639864 0.03861214926 0.1906639864 0.03861214926 0.1906639864 -0.9613878507 0.1906639864
1.480000000 -0.9600324546 0.1939142303 0.03996754543 0.1939142303 0.03996754543 0.1939142303 -0.9600324546 0.1939142303
1.490000000 -0.9586620191 0.1971365915 0.04133798093 0.1971365915 0.04133798093 0.1971365915 -0.9586620191 0.1971365915
1.500000000 -0.9572768816 0.2003313362 0.04272311844 0.2003313362 0.04272311844 0.2003313362 -0.9572768816 0.2003313362
1.510000000 -0.9558773717 0.2034987257 0.04412262832 0.2034987257 0.04412262832 0.2034987257 -0.9558773717 0.2034987257
1.520000000 -0.9544638117 0.2066390166 0.04553618830 0.2066390166 0.04553618830 0.2066390166 -0.9544638117 0.2066390166
1.530000000 -0.9530365167 0.2097524607 0.04696348329 0.2097524607 0.04696348329 0.2097524607 -0.9530365167 0.2097524607
1.540000000 -0.9515957949 0.2128393054 0.04840420507 0.2128393054 0.04840420507 0.2128393054 -0.9515957949 0.2128393054
1.550000000 -0.9501419478 0.2158997935 0.04985805215 0.2158997935 0.04985805215 0.2158997935 -0.9501419478 0.2158997935
1.560000000 -0.9486752705 0.2189341638 0.05132472948 0.2189341638 0.05132472948 0.2189341638 -0.9486752705 0.2189341638
1.570000000 -0.9471960517 0.2219426507 0.05280394829 0.2219426507 0.05280394829 0.2219426507 -0.9471960517 0.2219426507
1.580000000 -0.9457045741 0.2249254848 0.05429542587 0.2249254848 0.05429542587 0.2249254848 -0.9457045741 0.2249254848
1.590000000 -0.9442011146 0.2278828924 0.05579888536 0.2278828924 0.05579888536 0.2278828924 -0.9442011146 0.2278828924
1.600000000 -0.9426859444 0.2308150964 0.05731405564 0.2308150964 0.05731405564 0.2308150964 -0.9426859444 0.2308150964
1.610000000 -0.9411593289 0.2337223158 0.05884067106 0.2337223158 0.05884067106 0.2337223158 -0.9411593289 0.2337223158
1.620000000 -0.9396215287 0.2366047658 0.06037847133 0.2366047658 0.06037847133 0.2366047658 -0.9396215287 0.2366047658
1.630000000 -0.9380727986 0.2394626583 0.06192720136 0.2394626583 0.06192720136 0.2394626583 -0.9380727986 0.2394626583
1.640000000 -0.9365133889 0.2422962019 0.06348661108 0.2422962019 0.06348661108 0.2422962019 -0.9365133889 0.2422962019
1.650000000 -0.9349435447 0.2451056017 0.06505645529 0.2451056017 0.06505645529 0.2451056017 -0.9349435447 0.2451056017
1.660000000 -0.9333635065 0.2478910594 0.06663649355 0.2478910594 0.06663649355 0.2478910594 -0.9333635065 0.2478910594
1.670000000 -0.9317735100 0.2506527740 0.06822649000 0.2506527740 0.06822649000 0.2506527740 -0.9317735100 0.2506527740
1.680000000 -0.9301737867 0.2533909411 0.06982621328 0.2533909411 0.06982621328 0.2533909411 -0.9301737867 0.2533909411
1.690000000 -0.9285645637 0.2561057534 0.07143543635 0.2561057534 0.07143543635 0.2561057534 -0.9285645637 0.2561057534
1.700000000 -0.9269460636 0.2587974008 0.07305393638 0.2587974008 0.07305393638 0.2587974008 -0.9269460636 0.2587974008
1.710000000 -0.9253185053 0.2614660704 0.07468149468 0.2614660704 0.07468149468 0.2614660704 -0.9253185053 0.2614660704
1.720000000 -0.9236821035 0.2641119463 0.07631789653 0.2641119463 0.07631789653 0.2641119463 -0.9236821035 0.2641119463
1.730000000 -0.9220370689 0.2667352104 0.07796293110 0.2667352104 0.07796293110 0.2667352104 -0.9220370689 0.2667352104
1.740000000 -0.9203836087 0.2693360415 0.07961639133 0.2693360415 0.07961639133 0.2693360415 -0.9203836087 0.2693360415
1.750000000 -0.9187219262 0.2719146162 0.08127807385 0.2719146162 0.08127807385 0.2719146162 -0.9187219262 0.2719146162
1.760000000 -0.9170522211 0.2744711087 0.08294777886 0.2744711087 0.08294777886 0.2744711087 -0.9170522211 0.2744711087
1.770000000 -0.9153746899 0.2770056906 0.08462531008 0.2770056906 0.08462531008 0.2770056906 -0.9153746899 0.2770056906
1.780000000 -0.9136895254 0.2795185311 0.08631047461 0.2795185311 0.08631047461 0.2795185311 -0.9136895254 0.2795185311
1.790000000 -0.9119969171 0.2820097976 0.08800308285 0.2820097976 0.08800308285 0.2820097976 -0.9119969171 0.2820097976
1.800000000 -0.9102970515 0.2844796548 0.08970294847 0.2844796548 0.08970294847 0.2844796548 -0.9102970515 0.2844796548
1.810000000 -0.9085901117 0.2869282655 0.09140988825 0.2869282655 0.09140988825 0.2869282655 -0.9085901117 0.2869282655
1.820000000 -0.9068762779 0.2893557903 0.09312372209 0.2893557903 0.09312372209 0.2893557903 -0.9068762779 0.2893557903
1.830000000 -0.9051557271 0.2917623879 0.09484427286 0.2917623879 0.09484427286 0.2917623879 -0.9051557271 0.2917623879
1.840000000 -0.9034286336 0.2941482150 0.09657136636 0.2941482150 0.09657136636 0.2941482150 -0.9034286336 0.2941482150
1.850000000 -0.9016951687 0.2965134262 0.09830483126 0.2965134262 0.09830483126 0.2965134262 -0.9016951687 0.2965134262
1.860000000 -0.8999555010 0.2988581743 0.1000444990 0.2988581743 0.1000444990 0.2988581743 -0.8999555010 0.2988581743
1.870000000 -0.8982097961 0.3011826104 0.1017902039 0.3011826104 0.1017902039 0.3011826104 -0.8982097961 0.3011826104
1.880000000 -0.8964582174 0.3034868837 0.1035417826 0.3034868837 0.1035417826 0.3034868837 -0.8964582174 0.3034868837
1.890000000 -0.8947009252 0.3057711416 0.1052990748 0.3057711416 0.1052990748 0.3057711416 -0.8947009252 0.3057711416
1.900000000 -0.8929380777 0.3080355299 0.1070619223 0.3080355299 0.1070619223 0.3080355299 -0.8929380777 0.3080355299
1.910000000 -0.8911698302 0.3102801927 0.1088301698 0.3102801927 0.1088301698 0.3102801927 -0.8911698302 0.3102801927
1.920000000 -0.8893963358 0.3125052725 0.1106036642 0.3125052725 0.1106036642 0.3125052725 -0.8893963358 0.3125052725
1.930000000 -0.8876177453 0.3147109102 0.1123822547 0.3147109102 0.1123822547 0.3147109102 -0.8876177453 0.3147109102
1.940000000 -0.8858342068 0.3168972451 0.1141657932 0.3168972451 0.1141657932 0.3168972451 -0.8858342068 0.3168972451
1.950000000 -0.8840458665 0.3190644153 0.1159541335 0.3190644153 0.1159541335 0.3190644153 -0.8840458665 0.3190644153
1.960000000 -0.8822528680 0.3212125570 0.1177471320 0.3212125570 0.1177471320 0.3212125570 -0.8822528680 0.3212125570
1.970000000 -0.8804553531 0.3233418053 0.1195446469 0.3233418053 0.1195446469 0.3233418053 -0.8804553531 0.3233418053
1.980000000 -0.8786534612 0.3254522937 0.1213465388 0.3254522937 0.1213465388 0.3254522937 -0.8786534612 0.3254522937
1.990000000 -0.8768473295 0.3275441545 0.1231526705 0.3275441545 0.1231526705 0.3275441545 -0.8768473295 0.3275441545
2.000000000 -0.8750370934 0.3296175185 0.1249629066 0.3296175185 0.1249629066 0.3296175185 -0.8750370934 0.3296175185
2.010000000 -0.8732228860 0.3316725154 0.1267771140 0.3316725154 0.1267771140 0.3316725154 -0.8732228860 0.3316725154
2.020000000 -0.8714048387 0.3337092734 0.1285951613 0.3337092734 0.1285951613 0.3337092734 -0.8714048387 0.3337092734
2.030000000 -0.8695830807 0.3357279197 0.1304169193 0.3357279197 0.1304169193 0.3357279197 -0.8695830807 0.3357279197
2.040000000 -0.8677577394 0.3377285802 0.1322422606 0.3377285802 0.1322422606 0.3377285802 -0.8677577394 0.3377285802
2.050000000 -0.8659289402 0.3397113794 0.1340710598 0.3397113794 0.1340710598 0.3397113794 -0.8659289402 0.3397113794
2.060000000 -0.8640968069 0.3416764410 0.1359031931 0.3416764410 0.1359031931 0.3416764410 -0.8640968069 0.3416764410
2.070000000 -0.8622614613 0.3436238873 0.1377385387 0.3436238873 0.1377385387 0.3436238873 -0.8622614613 0.3436238873
2.080000000 -0.8604230234 0.3455538395 0.1395769766 0.3455538395 0.1395769766 0.3455538395 -0.8604230234 0.3455538395
2.090000000 -0.8585816116 0.3474664180 0.1414183884 0.3474664180 0.1414183884 0.3474664180 -0.8585816116 0.3474664180
2.100000000 -0.8567373424 0.3493617417 0.1432626576 0.3493617417 0.1432626576 0.3493617417 -0.8567373424 0.3493617417
2.110000000 -0.8548903307 0.3512399288 0.1451096693 0.3512399288 0.1451096693 0.3512399288 -0.8548903307 0.3512399288
2.120000000 -0.8530406898 0.3531010965 0.1469593102 0.3531010965 0.1469593102 0.3531010965 -0.8530406898 0.3531010965
2.130000000 -0.8511885313 0.3549453606 0.1488114687 0.3549453606 0.1488114687 0.3549453606 -0.8511885313 0.3549453606
2.140000000 -0.8493339651 0.3567728364 0.1506660349 0.3567728364 0.1506660349 0.3567728364 -0.8493339651 0.3567728364
2.150000000 -0.8474770998 0.3585836379 0.1525229002 0.3585836379 0.1525229002 0.3585836379 -0.8474770998 0.3585836379
2.160000000 -0.8456180422 0.3603778784 0.1543819578 0.3603778784 0.1543819578 0.3603778784 -0.8456180422 0.3603778784
2.170000000 -0.8437568975 0.3621556702 0.1562431025 0.3621556702 0.1562431025 0.3621556702 -0.8437568975 0.3621556702
2.180000000 -0.8418937698 0.3639171246 0.1581062302 0.3639171246 0.1581062302 0.3639171246 -0.8418937698 0.3639171246
2.190000000 -0.8400287612 0.3656623521 0.1599712388 0.3656623521 0.1599712388 0.3656623521 -0.8400287612 0.3656623521
2.200000000 -0.8381619728 0.3673914623 0.1618380272 0.3673914623 0.1618380272 0.3673914623 -0.8381619728 0.3673914623
2.210000000 -0.8362935039 0.3691045641 0.1637064961 0.3691045641 0.1637064961 0.3691045641 -0.8362935039 0.3691045641
2.220000000 -0.8344234527 0.3708017653 0.1655765473 0.3708017653 0.1655765473 0.3708017653 -0.8344234527 0.3708017653
2.230000000 -0.8325519158 0.3724831730 0.1674480842 0.3724831730 0.1674480842 0.3724831730 -0.8325519158 0.3724831730
2.240000000 -0.8306789884 0.3741488937 0.1693210116 0.3741488937 0.1693210116 0.3741488937 -0.8306789884 0.3741488937
2.250000000 -0.8288047646 0.3757990327 0.1711952354 0.3757990327 0.1711952354 0.3757990327 -0.8288047646 0.3757990327
2.260000000 -0.8269293368 0.3774336949 0.1730706632 0.3774336949 0.1730706632 0.3774336949 -0.8269293368 0.3774336949
2.270000000 -0.8250527965 0.3790529842 0.1749472035 0.3790529842 0.1749472035 0.3790529842 -0.8250527965 0.3790529842
2.280000000 -0.8231752336 0.3806570039 0.1768247664 0.3806570039 0.1768247664 0.3806570039 -0.8231752336 0.3806570039
2.290000000 -0.8212967369 0.3822458563 0.1787032631 0.3822458563 0.1787032631 0.3822458563 -0.8212967369 0.3822458563
2.300000000 -0.8194173937 0.3838196434 0.1805826063 0.3838196434 0.1805826063 0.3838196434 -0.8194173937 0.3838196434
2.310000000 -0.8175372904 0.3853784661 0.1824627096 0.3853784661 0.1824627096 0.3853784661 -0.8175372904 0.3853784661
2.320000000 -0.8156565120 0.3869224248 0.1843434880 0.3869224248 0.1843434880 0.3869224248 -0.8156565120 0.3869224248
2.330000000 -0.8137751422 0.3884516192 0.1862248578 0.3884516192 0.1862248578 0.3884516192 -0.8137751422 0.3884516192
2.340000000 -0.8118932636 0.3899661481 0.1881067364 0.3899661481 0.1881067364 0.3899661481 -0.8118932636 0.3899661481
2.350000000 -0.8100109578 0.3914661100 0.1899890422 0.3914661100 0.1899890422 0.3914661100 -0.8100109578 0.3914661100
2.360000000 -0.8081283049 0.3929516024 0.1918716951 0.3929516024 0.1918716951 0.3929516024 -0.8081283049 0.3929516024
2.370000000 -0.8062453842 0.3944227224 0.1937546158 0.3944227224 0.1937546158 0.3944227224 -0.8062453842 0.3944227224
2.380000000 -0.8043622737 0.3958795662 0.1956377263 0.3958795662 0.1956377263 0.3958795662 -0.8043622737 0.3958795662
2.390000000 -0.8024790502 0.3973222296 0.1975209498 0.3973222296 0.1975209498 0.3973222296 -0.8024790502 0.3973222296
2.400000000 -0.8005957896 0.3987508077 0.1994042104 0.3987508077 0.1994042104 0.3987508077 -0.8005957896 0.3987508077
2.410000000 -0.7987125665 0.4001653950 0.2012874335 0.4001653950 0.2012874335 0.4001653950 -0.7987125665 0.4001653950
2.420000000 -0.7968294547 0.4015660852 0.2031705453 0.4015660852 0.2031705453 0.4015660852 -0.7968294547 0.4015660852
2.430000000 -0.7949465267 0.4029529718 0.2050534733 0.4029529718 0.2050534733 0.4029529718 -0.7949465267 0.4029529718
2.440000000 -0.7930638542 0.4043261474 0.2069361458 0.4043261474 0.2069361458 0.4043261474 -0.7930638542 0.4043261474
2.450000000 -0.7911815075 0.4056857040 0.2088184925 0.4056857040 0.2088184925 0.4056857040 -0.7911815075 0.4056857040
2.460000000 -0.7892995564 0.4070317332 0.2107004436 0.4070317332 0.2107004436 0.4070317332 -0.7892995564 0.4070317332
2.470000000 -0.7874180691 0.4083643259 0.2125819309 0.4083643259 0.2125819309 0.4083643259 -0.7874180691 0.4083643259
2.480000000 -0.7855371133 0.4096835725 0.2144628867 0.4096835725 0.2144628867 0.4096835725 -0.7855371133 0.4096835725
2.490000000 -0.7836567555 0.4109895629 0.2163432445 0.4109895629 0.2163432445 0.4109895629 -0.7836567555 0.4109895629
2.500000000 -0.7817770613 0.4122823863 0.2182229387 0.4122823863 0.2182229387 0.4122823863 -0.7817770613 0.4122823863
2.510000000 -0.7798980952 0.4135621314 0.2201019048 0.4135621314 0.2201019048 0.4135621314 -0.7798980952 0.4135621314
2.520000000 -0.7780199210 0.4148288865 0.2219800790 0.4148288865 0.2219800790 0.4148288865 -0.7780199210 0.4148288865
2.530000000 -0.7761426014 0.4160827393 0.2238573986 0.4160827393 0.2238573986 0.4160827393 -0.7761426014 0.4160827393
2.540000000 -0.7742661982 0.4173237768 0.2257338018 0.4173237768 0.2257338018 0.4173237768 -0.7742661982 0.4173237768
2.550000000 -0.7723907723 0.4185520857 0.2276092277 0.4185520857 0.2276092277 0.4185520857 -0.7723907723 0.4185520857
2.560000000 -0.7705163837 0.4197677522 0.2294836163 0.4197677522 0.2294836163 0.4197677522 -0.7705163837 0.4197677522
2.570000000 -0.7686430916 0.4209708617 0.2313569084 0.4209708617 0.2313569084 0.4209708617 -0.7686430916 0.4209708617
2.580000000 -0.7667709541 0.4221614995 0.2332290459 0.4221614995 0.2332290459 0.4221614995 -0.7667709541 0.4221614995
2.590000000 -0.7649000287 0.4233397500 0.2350999713 0.4233397500 0.2350999713 0.4233397500 -0.7649000287 0.4233397500
2.600000000 -0.7630303718 0.4245056975 0.2369696282 0.4245056975 0.2369696282 0.4245056975 -0.7630303718 0.4245056975
2.610000000 -0.7611620391 0.4256594254 0.2388379609 0.4256594254 0.2388379609 0.4256594254 -0.7611620391 0.4256594254
2.620000000 -0.7592950854 0.4268010171 0.2407049146 0.4268010171 0.2407049146 0.4268010171 -0.7592950854 0.4268010171
2.630000000 -0.7574295648 0.4279305550 0.2425704352 0.4279305550 0.2425704352 0.4279305550 -0.7574295648 0.4279305550
2.640000000 -0.7555655305 0.4290481213 0.2444344695 0.4290481213 0.2444344695 0.4290481213 -0.7555655305 0.4290481213
2.650000000 -0.7537030346 0.4301537978 0.2462969654 0.4301537978 0.2462969654 0.4301537978 -0.7537030346 0.4301537978
2.660000000 -0.7518421290 0.4312476657 0.2481578710 0.4312476657 0.2481578710 0.4312476657 -0.7518421290 0.4312476657
2.670000000 -0.7499828643 0.4323298057 0.2500171357 0.4323298057 0.2500171357 0.4323298057 -0.7499828643 0.4323298057
2.680000000 -0.7481252905 0.4334002981 0.2518747095 0.4334002981 0.2518747095 0.4334002981 -0.7481252905 0.4334002981
2.690000000 -0.7462694568 0.4344592229 0.2537305432 0.4344592229 0.2537305432 0.4344592229 -0.7462694568 0.4344592229
2.700000000 -0.7444154117 0.4355066592 0.2555845883 0.4355066592 0.2555845883 0.4355066592 -0.7444154117 0.4355066592
2.710000000 -0.7425632029 0.4365426862 0.2574367971 0.4365426862 0.2574367971 0.4365426862 -0.7425632029 0.4365426862
2.720000000 -0.7407128774 0.4375673823 0.2592871226 0.4375673823 0.2592871226 0.4375673823 -0.7407128774 0.4375673823
2.730000000 -0.7388644814 0.4385808254 0.2611355186 0.4385808254 0.2611355186 0.4385808254 -0.7388644814 0.4385808254
2.740000000 -0.7370180603 0.4395830934 0.2629819397 0.4395830934 0.2629819397 0.4395830934 -0.7370180603 0.4395830934
2.750000000 -0.7351736589 0.4405742632 0.2648263411 0.4405742632 0.2648263411 0.4405742632 -0.7351736589 0.4405742632
2.760000000 -0.7333313213 0.4415544116 0.2666686787 0.4415544116 0.2666686787 0.4415544116 -0.7333313213 0.4415544116
2.770000000 -0.7314910908 0.4425236150 0.2685089092 0.4425236150 0.2685089092 0.4425236150 -0.7314910908 0.4425236150
2.780000000 -0.7296530100 0.4434819491 0.2703469900 0.4434819491 0.2703469900 0.4434819491 -0.7296530100 0.4434819491
2.790000000 -0.7278171209 0.4444294895 0.2721828791 0.4444294895 0.2721828791 0.4444294895 -0.7278171209 0.4444294895
2.800000000 -0.7259834648 0.4453663112 0.2740165352 0.4453663112 0.2740165352 0.4453663112 -0.7259834648 0.4453663112
2.810000000 -0.7241520823 0.4462924886 0.2758479177 0.4462924886 0.2758479177 0.4462924886 -0.7241520823 0.4462924886
2.820000000 -0.7223230133 0.4472080962 0.2776769867 0.4472080962 0.2776769867 0.4472080962 -0.7223230133 0.4472080962
2.830000000 -0.7204962970 0.4481132075 0.2795037030 0.4481132075 0.2795037030 0.4481132075 -0.7204962970 0.4481132075
2.840000000 -0.7186719722 0.4490078959 0.2813280278 0.4490078959 0.2813280278 0.4490078959 -0.7186719722 0.4490078959
2.850000000 -0.7168500766 0.4498922344 0.2831499234 0.4498922344 0.2831499234 0.4498922344 -0.7168500766 0.4498922344
2.860000000 -0.7150306478 0.4507662956 0.2849693522 0.4507662956 0.2849693522 0.4507662956 -0.7150306478 0.4507662956
2.870000000 -0.7132137224 0.4516301515 0.2867862776 0.4516301515 0.2867862776 0.4516301515 -0.7132137224 0.4516301515
2.880000000 -0.7113993364 0.4524838738 0.2886006636 0.4524838738 0.2886006636 0.4524838738 -0.7113993364 0.4524838738
2.890000000 -0.7095875254 0.4533275339 0.2904124746 0.4533275339 0.2904124746 0.4533275339 -0.7095875254 0.4533275339
2.900000000 -0.7077783242 0.4541612026 0.2922216758 0.4541612026 0.2922216758 0.4541612026 -0.7077783242 0.4541612026
2.910000000 -0.7059717670 0.4549849506 0.2940282330 0.4549849506 0.2940282330 0.4549849506 -0.7059717670 0.4549849506
2.920000000 -0.7041678874 0.4557988479 0.2958321126 0.4557988479 0.2958321126 0.4557988479 -0.7041678874 0.4557988479
2.930000000 -0.7023667187 0.4566029642 0.2976332813 0.4566029642 0.2976332813 0.4566029642 -0.7023667187 0.4566029642
2.940000000 -0.7005682932 0.4573973690 0.2994317068 0.4573973690 0.2994317068 0.4573973690 -0.7005682932 0.4573973690
2.950000000 -0.6987726428 0.4581821311 0.3012273572 0.4581821311 0.3012273572 0.4581821311 -0.6987726428 0.4581821311
2.960000000 -0.6969797989 0.4589573190 0.3030202011 0.4589573190 0.3030202011 0.4589573190 -0.6969797989 0.4589573190
2.970000000 -0.6951897922 0.4597230011 0.3048102078 0.4597230011 0.3048102078 0.4597230011 -0.6951897922 0.4597230011
2.980000000 -0.6934026530 0.4604792450 0.3065973470 0.4604792450 0.3065973470 0.4604792450 -0.6934026530 0.4604792450
2.990000000 -0.6916184109 0.4612261182 0.3083815891 0.4612261182 0.3083815891 0.4612261182 -0.6916184109 0.4612261182
3.000000000 -0.6898370951 0.4619636877 0.3101629049 0.4619636877 0.3101629049 0.4619636877 -0.6898370951 0.4619636877
3.010000000 -0.6880587341 0.4626920202 0.3119412659 0.4626920202 0.3119412659 0.4626920202 -0.6880587341 0.4626920202
3.020000000 -0.6862833559 0.4634111819 0.3137166441 0.4634111819 0.3137166441 0.4634111819 -0.6862833559 0.4634111819
3.030000000 -0.6845109882 0.4641212387 0.3154890118 0.4641212387 0.3154890118 0.4641212387 -0.6845109882 0.4641212387
3.040000000 -0.6827416578 0.4648222561 0.3172583422 0.4648222561 0.3172583422 0.4648222561 -0.6827416578 0.4648222561
3.050000000 -0.6809753914 0.4655142993 0.3190246086 0.4655142993 0.3190246086 0.4655142993 -0.6809753914 0.4655142993
3.060000000 -0.6792122147 0.4661974331 0.3207877853 0.4661974331 0.3207877853 0.4661974331 -0.6792122147 0.4661974331
3.070000000 -0.6774521535 0.4668717219 0.3225478465 0.4668717219 0.3225478465 0.4668717219 -0.6774521535 0.4668717219
3.080000000 -0.6756952325 0.4675372297 0.3243047675 0.4675372297 0.3243047675 0.4675372297 -0.6756952325 0.4675372297
3.090000000 -0.6739414763 0.4681940203 0.3260585237 0.4681940203 0.3260585237 0.4681940203 -0.6739414763 0.4681940203
3.100000000 -0.6721909089 0.4688421568 0.3278090911 0.4688421568 0.3278090911 0.4688421568 -0.6721909089 0.4688421568
3.110000000 -0.6704435539 0.4694817023 0.3295564461 0.4694817023 0.3295564461 0.4694817023 -0.6704435539 0.4694817023
3.120000000 -0.6686994342 0.4701127194 0.3313005658 0.4701127194 0.3313005658 0.4701127194 -0.6686994342 0.4701127194
3.130000000 -0.6669585725 0.4707352703 0.3330414275 0.4707352703 0.3330414275 0.4707352703 -0.6669585725 0.4707352703
3.140000000 -0.6652209908 0.4713494169 0.3347790092 0.4713494169 0.3347790092 0.4713494169 -0.6652209908 0.4713494169
3.150000000 -0.6634867108 0.4719552207 0.3365132892 0.4719552207 0.3365132892 0.4719552207 -0.6634867108 0.4719552207
3.160000000 -0.6617557538 0.4725527428 0.3382442462 0.4725527428 0.3382442462 0.4725527428 -0.6617557538 0.4725527428
3.170000000 -0.6600281404 0.4731420440 0.3399718596 0.4731420440 0.3399718596 0.4731420440 -0.6600281404 0.4731420440
3.180000000 -0.6583038910 0.4737231849 0.3416961090 0.4737231849 0.3416961090 0.4737231849 -0.6583038910 0.4737231849
3.190000000 -0.6565830255 0.4742962256 0.3434169745 0.4742962256 0.3434169745 0.4742962256 -0.6565830255 0.4742962256
3.200000000 -0.6548655633 0.4748612257 0.3451344367 0.4748612257 0.3451344367 0.4748612257 -0.6548655633 0.4748612257
3.210000000 -0.6531515233 0.4754182447 0.3468484767 0.4754182447 0.3468484767 0.4754182447 -0.6531515233 0.4754182447
3.220000000 -0.6514409243 0.4759673416 0.3485590757 0.4759673416 0.3485590757 0.4759673416 -0.6514409243 0.4759673416
3.230000000 -0.6497337844 0.4765085752 0.3502662156 0.4765085752 0.3502662156 0.4765085752 -0.6497337844 0.4765085752
3.240000000 -0.6480301213 0.4770420039 0.3519698787 0.4770420039 0.3519698787 0.4770420039 -0.6480301213 0.4770420039
3.250000000 -0.6463299525 0.4775676856 0.3536700475 0.4775676856 0.3536700475 0.4775676856 -0.6463299525 0.4775676856
3.260000000 -0.6446332948 0.4780856781 0.3553667052 0.4780856781 0.3553667052 0.4780856781 -0.6446332948 0.4780856781
3.270000000 -0.6429401648 0.4785960388 0.3570598352 0.4785960388 0.3570598352 0.4785960388 -0.6429401648 0.4785960388
3.280000000 -0.6412505786 0.4790988245 0.3587494214 0.4790988245 0.3587494214 0.4790988245 -0.6412505786 0.4790988245
3.290000000 -0.6395645521 0.4795940921 0.3604354479 0.4795940921 0.3604354479 0.4795940921 -0.6395645521 0.4795940921
3.300000000 -0.6378821007 0.4800818977 0.3621178993 0.4800818977 0.3621178993 0.4800818977 -0.6378821007 0.4800818977
3.310000000 -0.6362032393 0.4805622976 0.3637967607 0.4805622976 0.3637967607 0.4805622976 -0.6362032393 0.4805622976
3.320000000 -0.6345279826 0.4810353472 0.3654720174 0.4810353472 0.3654720174 0.4810353472 -0.6345279826 0.4810353472
3.330000000 -0.6328563448 0.4815011020 0.3671436552 0.4815011020 0.3671436552 0.4815011020 -0.6328563448 0.4815011020
3.340000000 -0.6311883400 0.4819596170 0.3688116600 0.4819596170 0.3688116600 0.4819596170 -0.6311883400 0.4819596170
3.350000000 -0.6295239815 0.4824109468 0.3704760185 0.4824109468 0.3704760185 0.4824109468 -0.6295239815 0.4824109468
3.360000000 -0.6278632825 0.4828551458 0.3721367175 0.4828551458 0.3721367175 0.4828551458 -0.6278632825 0.4828551458
3.370000000 -0.6262062560 0.4832922681 0.3737937440 0.4832922681 0.3737937440 0.4832922681 -0.6262062560 0.4832922681
3.380000000 -0.6245529144 0.4837223672 0.3754470856 0.4837223672 0.3754470856 0.4837223672 -0.6245529144 0.4837223672
3.390000000 -0.6229032698 0.4841454967 0.3770967302 0.4841454967 0.3770967302 0.4841454967 -0.6229032698 0.4841454967
3.400000000 -0.6212573341 0.4845617095 0.3787426659 0.4845617095 0.3787426659 0.4845617095 -0.6212573341 0.4845617095
3.410000000 -0.6196151186 0.4849710585 0.3803848814 0.4849710585 0.3803848814 0.4849710585 -0.6196151186 0.4849710585
3.420000000 -0.6179766346 0.4853735959 0.3820233654 0.4853735959 0.3820233654 0.4853735959 -0.6179766346 0.4853735959
3.430000000 -0.6163418928 0.4857693739 0.3836581072 0.4857693739 0.3836581072 0.4857693739 -0.6163418928 0.4857693739
3.440000000 -0.6147109037 0.4861584443 0.3852890963 0.4861584443 0.3852890963 0.4861584443 -0.6147109037 0.4861584443
3.450000000 -0.6130836776 0.4865408585 0.3869163224 0.4865408585 0.3869163224 0.4865408585 -0.6130836776 0.4865408585
3.460000000 -0.6114602241 0.4869166677 0.3885397759 0.4869166677 0.3885397759 0.4869166677 -0.6114602241 0.4869166677
3.470000000 -0.6098405530 0.4872859227 0.3901594470 0.4872859227 0.3901594470 0.4872859227 -0.6098405530 0.4872859227
3.480000000 -0.6082246733 0.4876486740 0.3917753267 0.4876486740 0.3917753267 0.4876486740 -0.6082246733 0.4876486740
3.490000000 -0.6066125941 0.4880049719 0.3933874059 0.4880049719 0.3933874059 0.4880049719 -0.6066125941 0.4880049719
3.500000000 -0.6050043239 0.4883548663 0.3949956761 0.4883548663 0.3949956761 0.4883548663 -0.6050043239 0.4883548663
3.510000000 -0.6033998712 0.4886984066 0.3966001288 0.4886984066 0.3966001288 0.4886984066 -0.6033998712 0.4886984066
3.520000000 -0.6017992439 0.4890356423 0.3982007561 0.4890356423 0.3982007561 0.4890356423 -0.6017992439 0.4890356423
3.530000000 -0.6002024498 0.4893666222 0.3997975502 0.4893666222 0.3997975502 0.4893666222 -0.6002024498 0.4893666222
3.540000000 -0.5986094963 0.4896913951 0.4013905037 0.4896913951 0.4013905037 0.4896913951 -0.5986094963 0.4896913951
3.550000000 -0.5970203907 0.4900100093 0.4029796093 0.4900100093 0.4029796093 0.4900100093 -0.5970203907 0.4900100093
3.560000000 -0.5954351399 0.4903225130 0.4045648601 0.4903225130 0.4045648601 0.4903225130 -0.5954351399 0.4903225130
3.570000000 -0.5938537505 0.4906289538 0.4061462495 0.4906289538 0.4061462495 0.4906289538 -0.5938537505 0.4906289538
3.580000000 -0.5922762289 0.4909293792 0.4077237711 0.4909293792 0.4077237711 0.4909293792 -0.5922762289 0.4909293792
3.590000000 -0.5907025811 0.4912238364 0.4092974189 0.4912238364 0.4092974189 0.4912238364 -0.5907025811 0.4912238364
3.600000000 -0.5891328131 0.4915123723 0.4108671869 0.4915123723 0.4108671869 0.4915123723 -0.5891328131 0.4915123723
3.610000000 -0.5875669304 0.4917950334 0.4124330696 0.4917950334 0.4124330696 0.4917950334 -0.5875669304 0.4917950334
3.620000000 -0.5860049383 0.4920718661 0.4139950617 0.4920718661 0.4139950617 0.4920718661 -0.5860049383 0.4920718661
3.630000000 -0.5844468419 0.4923429162 0.4155531581 0.4923429162 0.4155531581 0.4923429162 -0.5844468419 0.4923429162
3.640000000 -0.5828926461 0.4926082296 0.4171073539 0.4926082296 0.4171073539 0.4926082296 -0.5828926461 0.4926082296
3.650000000 -0.5813423553 0.4928678516 0.4186576447 0.4928678516 0.4186576447 0.4928678516 -0.5813423553 0.4928678516
3.660000000 -0.5797959740 0.4931218273 0.4202040260 0.4931218273 0.4202040260 0.4931218273 -0.5797959740 0.4931218273
3.670000000 -0.5782535063 0.4933702015 0.4217464937 0.4933702015 0.4217464937 0.4933702015 -0.5782535063 0.4933702015
3.680000000 -0.5767149559 0.4936130188 0.4232850441 0.4936130188 0.4232850441 0.4936130188 -0.5767149559 0.4936130188
3.690000000 -0.5751803266 0.4938503235 0.4248196734 0.4938503235 0.4248196734 0.4938503235 -0.5751803266 0.4938503235
3.700000000 -0.5736496217 0.4940821595 0.4263503783 0.4940821595 0.4263503783 0.4940821595 -0.5736496217 0.4940821595
3.710000000 -0.5721228444 0.4943085705 0.4278771556 0.4943085705 0.4278771556 0.4943085705 -0.5721228444 0.4943085705
3.720000000 -0.5705999976 0.4945296000 0.4294000024 0.4945296000 0.4294000024 0.4945296000 -0.5705999976 0.4945296000
3.730000000 -0.5690810842 0.4947452909 0.4309189158 0.4947452909 0.4309189158 0.4947452909 -0.5690810842 0.4947452909
3.740000000 -0.5675661065 0.4949556862 0.4324338935 0.4949556862 0.4324338935 0.4949556862 -0.5675661065 0.4949556862
3.750000000 -0.5660550669 0.4951608285 0.4339449331 0.4951608285 0.4339449331 0.4951608285 -0.5660550669 0.4951608285
3.760000000 -0.5645479674 0.4953607600 0.4354520326 0.4953607600 0.4354520326 0.4953607600 -0.5645479674 0.4953607600
3.770000000 -0.5630448100 0.4955555228 0.4369551900 0.4955555228 0.4369551900 0.4955555228 -0.5630448100 0.4955555228
3.780000000 -0.5615455964 0.4957451585 0.4384544036 0.4957451585 0.4384544036 0.4957451585 -0.5615455964 0.4957451585
3.790000000 -0.5600503279 0.4959297087 0.4399496721 0.4959297087 0.4399496721 0.4959297087 -0.5600503279 0.4959297087
3.800000000 -0.5585590058 0.4961092146 0.4414409942 0.4961092146 0.4414409942 0.4961092146 -0.5585590058 0.4961092146
3.810000000 -0.5570716313 0.4962837171 0.4429283687 0.4962837171 0.4429283687 0.4962837171 -0.5570716313 0.4962837171
3.820000000 -0.5555882053 0.4964532568 0.4444117947 0.4964532568 0.4444117947 0.4964532568 -0.5555882053 0.4964532568
3.830000000 -0.5541087283 0.4966178741 0.4458912717 0.4966178741 0.4458912717 0.4966178741 -0.5541087283 0.4966178741
3.840000000 -0.5526332009 0.4967776092 0.4473667991 0.4967776092 0.4473667991 0.4967776092 -0.5526332009 0.4967776092
3.850000000 -0.5511616234 0.4969325019 0.4488383766 0.4969325019 0.4488383766 0.4969325019 -0.5511616234 0.4969325019
3.860000000 -0.5496939959 0.4970825918 0.4503060041 0.4970825918 0.4503060041 0.4970825918 -0.5496939959 0.4970825918
3.870000000 -0.5482303185 0.4972279183 0.4517696815 0.4972279183 0.4517696815 0.4972279183 -0.5482303185 0.4972279183
3.880000000 -0.5467705908 0.4973685203 0.4532294092 0.4973685203 0.4532294092 0.4973685203 -0.5467705908 0.4973685203
3.890000000 -0.5453148124 0.4975044368 0.4546851876 0.4975044368 0.4546851876 0.4975044368 -0.5453148124 0.4975044368
3.900000000 -0.5438629829 0.4976357063 0.4561370171 0.4976357063 0.4561370171 0.4976357063 -0.5438629829 0.4976357063
3.910000000 -0.5424151014 0.4977623670 0.4575848986 0.4977623670 0.4575848986 0.4977623670 -0.5424151014 0.4977623670
3.920000000 -0.5409711670 0.4978844570 0.4590288330 0.4978844570 0.4590288330 0.4978844570 -0.5409711670 0.4978844570
3.930000000 -0.5395311786 0.4980020141 0.4604688214 0.4980020141 0.4604688214 0.4980020141 -0.5395311786 0.4980020141
3.940000000 -0.5380951351 0.4981150757 0.4619048649 0.4981150757 0.4619048649 0.4981150757 -0.5380951351 0.4981150757
3.950000000 -0.5366630349 0.4982236793 0.4633369651 0.4982236793 0.4633369651 0.4982236793 -0.5366630349 0.4982236793
3.960000000 -0.5352348766 0.4983278618 0.4647651234 0.4983278618 0.4647651234 0.4983278618 -0.5352348766 0.4983278618
3.970000000 -0.5338106584 0.4984276600 0.4661893416 0.4984276600 0.4661893416 0.4984276600 -0.5338106584 0.4984276600
3.980000000 -0.5323903785 0.4985231103 0.4676096215 0.4985231103 0.4676096215 0.4985231103 -0.5323903785 0.4985231103
3.990000000 -0.5309740348 0.4986142492 0.4690259652 0.4986142492 0.4690259652 0.4986142492 -0.5309740348 0.4986142492
4.000000000 -0.5295616252 0.4987011126 0.4704383748 0.4987011126 0.4704383748 0.4987011126 -0.5295616252 0.4987011126
