! Generated by 参数面去嵌台 (reference-plane de-embed bench)
# GHz S RI R 50
0.08000000000 0.000000000 0.000000000 0.9604526224 -0.1957554579 0.9604526224 -0.1957554579 0.000000000 0.000000000
0.08300000000 0.000000000 0.000000000 0.9589493748 -0.2029914673 0.9589493748 -0.2029914673 0.000000000 0.000000000
0.08600000000 0.000000000 0.000000000 0.9573916122 -0.2102159368 0.9573916122 -0.2102159368 0.000000000 0.000000000
0.08900000000 0.000000000 0.000000000 0.9557794232 -0.2174284559 0.9557794232 -0.2174284559 0.000000000 0.000000000
0.09200000000 0.000000000 0.000000000 0.9541128994 -0.2246286144 0.9541128994 -0.2246286144 0.000000000 0.000000000
0.09500000000 0.000000000 0.000000000 0.9523921355 -0.2318160031 0.9523921355 -0.2318160031 0.000000000 0.000000000
0.09800000000 0.000000000 0.000000000 0.9506172295 -0.2389902134 0.9506172295 -0.2389902134 0.000000000 0.000000000
0.1010000000 0.000000000 0.000000000 0.9487882822 -0.2461508374 0.9487882822 -0.2461508374 0.000000000 0.000000000
0.1040000000 0.000000000 0.000000000 0.9469053975 -0.2532974681 0.9469053975 -0.2532974681 0.000000000 0.000000000
0.1070000000 0.000000000 0.000000000 0.9449686825 -0.2604296991 0.9449686825 -0.2604296991 0.000000000 0.000000000
0.1100000000 0.000000000 0.000000000 0.9429782474 -0.2675471251 0.9429782474 -0.2675471251 0.000000000 0.000000000
0.1130000000 0.000000000 0.000000000 0.9409342052 -0.2746493413 0.9409342052 -0.2746493413 0.000000000 0.000000000
0.1160000000 0.000000000 0.000000000 0.9388366721 -0.2817359442 0.9388366721 -0.2817359442 0.000000000 0.000000000
0.1190000000 0.000000000 0.000000000 0.9366857675 -0.2888065307 0.9366857675 -0.2888065307 0.000000000 0.000000000
0.1220000000 0.000000000 0.000000000 0.9344816135 -0.2958606989 0.9344816135 -0.2958606989 0.000000000 0.000000000
0.1250000000 0.000000000 0.000000000 0.9322243355 -0.3028980479 0.9322243355 -0.3028980479 0.000000000 0.000000000
0.1280000000 0.000000000 0.000000000 0.9299140618 -0.3099181775 0.9299140618 -0.3099181775 0.000000000 0.000000000
0.1310000000 0.000000000 0.000000000 0.9275509238 -0.3169206887 0.9275509238 -0.3169206887 0.000000000 0.000000000
0.1340000000 0.000000000 0.000000000 0.9251350557 -0.3239051834 0.9251350557 -0.3239051834 0.000000000 0.000000000
0.1370000000 0.000000000 0.000000000 0.9226665950 -0.3308712645 0.9226665950 -0.3308712645 0.000000000 0.000000000
0.1400000000 0.000000000 0.000000000 0.9201456819 -0.3378185361 0.9201456819 -0.3378185361 0.000000000 0.000000000
0.1430000000 0.000000000 0.000000000 0.9175724597 -0.3447466031 0.9175724597 -0.3447466031 0.000000000 0.000000000
0.1460000000 0.000000000 0.000000000 0.9149470748 -0.3516550717 0.9149470748 -0.3516550717 0.000000000 0.000000000
0.1490000000 0.000000000 0.000000000 0.9122696764 -0.3585435492 0.9122696764 -0.3585435492 0.000000000 0.000000000
0.1520000000 0.000000000 0.000000000 0.9095404167 -0.3654116440 0.9095404167 -0.3654116440 0.000000000 0.000000000
0.1550000000 0.000000000 0.000000000 0.9067594508 -0.3722589656 0.9067594508 -0.3722589656 0.000000000 0.000000000
0.1580000000 0.000000000 0.000000000 0.9039269369 -0.3790851248 0.9039269369 -0.3790851248 0.000000000 0.000000000
0.1610000000 0.000000000 0.000000000 0.9010430360 -0.3858897335 0.9010430360 -0.3858897335 0.000000000 0.000000000
0.1640000000 0.000000000 0.000000000 0.8981079120 -0.3926724049 0.8981079120 -0.3926724049 0.000000000 0.000000000
0.1670000000 0.000000000 0.000000000 0.8951217317 -0.3994327534 0.8951217317 -0.3994327534 0.000000000 0.000000000
0.1700000000 0.000000000 0.000000000 0.8920846650 -0.4061703947 0.8920846650 -0.4061703947 0.000000000 0.000000000
0.1730000000 0.000000000 0.000000000 0.8889968845 -0.4128849458 0.8889968845 -0.4128849458 0.000000000 0.000000000
0.1760000000 0.000000000 0.000000000 0.8858585657 -0.4195760249 0.8858585657 -0.4195760249 0.000000000 0.000000000
0.1790000000 0.000000000 0.000000000 0.8826698871 -0.4262432517 0.8826698871 -0.4262432517 0.000000000 0.000000000
0.1820000000 0.000000000 0.000000000 0.8794310298 -0.4328862471 0.8794310298 -0.4328862471 0.000000000 0.000000000
0.1850000000 0.000000000 0.000000000 0.8761421781 -0.4395046335 0.8761421781 -0.4395046335 0.000000000 0.000000000
0.1880000000 0.000000000 0.000000000 0.8728035189 -0.4460980347 0.8728035189 -0.4460980347 0.000000000 0.000000000
0.1910000000 0.000000000 0.000000000 0.8694152420 -0.4526660758 0.8694152420 -0.4526660758 0.000000000 0.000000000
0.1940000000 0.000000000 0.000000000 0.8659775399 -0.4592083835 0.8659775399 -0.4592083835 0.000000000 0.000000000
0.1970000000 0.000000000 0.000000000 0.8624906083 -0.4657245858 0.8624906083 -0.4657245858 0.000000000 0.000000000
0.2000000000 0.000000000 0.000000000 0.8589546452 -0.4722143122 0.8589546452 -0.4722143122 0.000000000 0.000000000
0.2030000000 0.000000000 0.000000000 0.8553698517 -0.4786771939 0.8553698517 -0.4786771939 0.000000000 0.000000000
0.2060000000 0.000000000 0.000000000 0.8517364316 -0.4851128635 0.8517364316 -0.4851128635 0.000000000 0.000000000
0.2090000000 0.000000000 0.000000000 0.8480545914 -0.4915209550 0.8480545914 -0.4915209550 0.000000000 0.000000000
0.2120000000 0.000000000 0.000000000 0.8443245404 -0.4979011043 0.8443245404 -0.4979011043 0.000000000 0.000000000
0.2150000000 0.000000000 0.000000000 0.8405464907 -0.5042529485 0.8405464907 -0.5042529485 0.000000000 0.000000000
0.2180000000 0.000000000 0.000000000 0.8367206571 -0.5105761266 0.8367206571 -0.5105761266 0.000000000 0.000000000
0.2210000000 0.000000000 0.000000000 0.8328472571 -0.5168702792 0.8328472571 -0.5168702792 0.000000000 0.000000000
0.2240000000 0.000000000 0.000000000 0.8289265108 -0.5231350484 0.8289265108 -0.5231350484 0.000000000 0.000000000
0.2270000000 0.000000000 0.000000000 0.8249586411 -0.5293700781 0.8249586411 -0.5293700781 0.000000000 0.000000000
0.2300000000 0.000000000 0.000000000 0.8209438737 -0.5355750138 0.8209438737 -0.5355750138 0.000000000 0.000000000
0.2330000000 0.000000000 0.000000000 0.8168824367 -0.5417495027 0.8168824367 -0.5417495027 0.000000000 0.000000000
0.2360000000 0.000000000 0.000000000 0.8127745611 -0.5478931940 0.8127745611 -0.5478931940 0.000000000 0.000000000
0.2390000000 0.000000000 0.000000000 0.8086204803 -0.5540057383 0.8086204803 -0.5540057383 0.000000000 0.000000000
0.2420000000 0.000000000 0.000000000 0.8044204305 -0.5600867880 0.8044204305 -0.5600867880 0.000000000 0.000000000
0.2450000000 0.000000000 0.000000000 0.8001746505 -0.5661359976 0.8001746505 -0.5661359976 0.000000000 0.000000000
0.2480000000 0.000000000 0.000000000 0.7958833817 -0.5721530232 0.7958833817 -0.5721530232 0.000000000 0.000000000
0.2510000000 0.000000000 0.000000000 0.7915468679 -0.5781375226 0.7915468679 -0.5781375226 0.000000000 0.000000000
0.2540000000 0.000000000 0.000000000 0.7871653558 -0.5840891556 0.7871653558 -0.5840891556 0.000000000 0.000000000
0.2570000000 0.000000000 0.000000000 0.7827390944 -0.5900075840 0.7827390944 -0.5900075840 0.000000000 0.000000000
0.2600000000 0.000000000 0.000000000 0.7782683354 -0.5958924713 0.7782683354 -0.5958924713 0.000000000 0.000000000
0.2630000000 0.000000000 0.000000000 0.7737533328 -0.6017434828 0.7737533328 -0.6017434828 0.000000000 0.000000000
0.2660000000 0.000000000 0.000000000 0.7691943434 -0.6075602861 0.7691943434 -0.6075602861 0.000000000 0.000000000
0.2690000000 0.000000000 0.000000000 0.7645916263 -0.6133425504 0.7645916263 -0.6133425504 0.000000000 0.000000000
0.2720000000 0.000000000 0.000000000 0.7599454433 -0.6190899469 0.7599454433 -0.6190899469 0.000000000 0.000000000
0.2750000000 0.000000000 0.000000000 0.7552560583 -0.6248021491 0.7552560583 -0.6248021491 0.000000000 0.000000000
0.2780000000 0.000000000 0.000000000 0.7505237381 -0.6304788321 0.7505237381 -0.6304788321 0.000000000 0.000000000
0.2810000000 0.000000000 0.000000000 0.7457487516 -0.6361196732 0.7457487516 -0.6361196732 0.000000000 0.000000000
0.2840000000 0.000000000 0.000000000 0.7409313703 -0.6417243518 0.7409313703 -0.6417243518 0.000000000 0.000000000
0.2870000000 0.000000000 0.000000000 0.7360718681 -0.6472925492 0.7360718681 -0.6472925492 0.000000000 0.000000000
0.2900000000 0.000000000 0.000000000 0.7311705211 -0.6528239489 0.7311705211 -0.6528239489 0.000000000 0.000000000
0.2930000000 0.000000000 0.000000000 0.7262276081 -0.6583182364 0.7262276081 -0.6583182364 0.000000000 0.000000000
0.2960000000 0.000000000 0.000000000 0.7212434100 -0.6637750994 0.7212434100 -0.6637750994 0.000000000 0.000000000
0.2990000000 0.000000000 0.000000000 0.7162182103 -0.6691942277 0.7162182103 -0.6691942277 0.000000000 0.000000000
0.3020000000 0.000000000 0.000000000 0.7111522944 -0.6745753133 0.7111522944 -0.6745753133 0.000000000 0.000000000
0.3050000000 0.000000000 0.000000000 0.7060459506 -0.6799180501 0.7060459506 -0.6799180501 0.000000000 0.000000000
0.3080000000 0.000000000 0.000000000 0.7008994689 -0.6852221345 0.7008994689 -0.6852221345 0.000000000 0.000000000
0.3110000000 0.000000000 0.000000000 0.6957131421 -0.6904872649 0.6957131421 -0.6904872649 0.000000000 0.000000000
0.3140000000 0.000000000 0.000000000 0.6904872649 -0.6957131421 0.6904872649 -0.6957131421 0.000000000 0.000000000
0.3170000000 0.000000000 0.000000000 0.6852221345 -0.7008994689 0.6852221345 -0.7008994689 0.000000000 0.000000000
0.3200000000 0.000000000 0.000000000 0.6799180501 -0.7060459506 0.6799180501 -0.7060459506 0.000000000 0.000000000
0.3230000000 0.000000000 0.000000000 0.6745753133 -0.7111522944 0.6745753133 -0.7111522944 0.000000000 0.000000000
0.3260000000 0.000000000 0.000000000 0.6691942277 -0.7162182103 0.6691942277 -0.7162182103 0.000000000 0.000000000
0.3290000000 0.000000000 0.000000000 0.6637750994 -0.7212434100 0.6637750994 -0.7212434100 0.000000000 0.000000000
0.3320000000 0.000000000 0.000000000 0.6583182364 -0.7262276081 0.6583182364 -0.7262276081 0.000000000 0.000000000
0.3350000000 0.000000000 0.000000000 0.6528239489 -0.7311705211 0.6528239489 -0.7311705211 0.000000000 0.000000000
0.3380000000 0.000000000 0.000000000 0.6472925492 -0.7360718681 0.6472925492 -0.7360718681 0.000000000 0.000000000
0.3410000000 0.000000000 0.000000000 0.6417243518 -0.7409313703 0.6417243518 -0.7409313703 0.000000000 0.000000000
0.3440000000 0.000000000 0.000000000 0.6361196732 -0.7457487516 0.6361196732 -0.7457487516 0.000000000 0.000000000
0.3470000000 0.000000000 0.000000000 0.6304788321 -0.7505237381 0.6304788321 -0.7505237381 0.000000000 0.000000000
0.3500000000 0.000000000 0.000000000 0.6248021491 -0.7552560583 0.6248021491 -0.7552560583 0.000000000 0.000000000
0.3530000000 0.000000000 0.000000000 0.6190899469 -0.7599454433 0.6190899469 -0.7599454433 0.000000000 0.000000000
0.3560000000 0.000000000 0.000000000 0.6133425504 -0.7645916263 0.6133425504 -0.7645916263 0.000000000 0.000000000
0.3590000000 0.000000000 0.000000000 0.6075602861 -0.7691943434 0.6075602861 -0.7691943434 0.000000000 0.000000000
0.3620000000 0.000000000 0.000000000 0.6017434828 -0.7737533328 0.6017434828 -0.7737533328 0.000000000 0.000000000
0.3650000000 0.000000000 0.000000000 0.5958924713 -0.7782683354 0.5958924713 -0.7782683354 0.000000000 0.000000000
0.3680000000 0.000000000 0.000000000 0.5900075840 -0.7827390944 0.5900075840 -0.7827390944 0.000000000 0.000000000
0.3710000000 0.000000000 0.000000000 0.5840891556 -0.7871653558 0.5840891556 -0.7871653558 0.000000000 0.000000000
0.3740000000 0.000000000 0.000000000 0.5781375226 -0.7915468679 0.5781375226 -0.7915468679 0.000000000 0.000000000
0.3770000000 0.000000000 0.000000000 0.5721530232 -0.7958833817 0.5721530232 -0.7958833817 0.000000000 0.000000000
0.3800000000 0.000000000 0.000000000 0.5661359976 -0.8001746505 0.5661359976 -0.8001746505 0.000000000 0.000000000
0.3830000000 0.000000000 0.000000000 0.5600867880 -0.8044204305 0.5600867880 -0.8044204305 0.000000000 0.000000000
0.3860000000 0.000000000 0.000000000 0.5540057383 -0.8086204803 0.5540057383 -0.8086204803 0.000000000 0.000000000
0.3890000000 0.000000000 0.000000000 0.5478931940 -0.8127745611 0.5478931940 -0.8127745611 0.000000000 0.000000000
0.3920000000 0.000000000 0.000000000 0.5417495027 -0.8168824367 0.5417495027 -0.8168824367 0.000000000 0.000000000
0.3950000000 0.000000000 0.000000000 0.5355750138 -0.8209438737 0.5355750138 -0.8209438737 0.000000000 0.000000000
0.3980000000 0.000000000 0.000000000 0.5293700781 -0.8249586411 0.5293700781 -0.8249586411 0.000000000 0.000000000
0.4010000000 0.000000000 0.000000000 0.5231350484 -0.8289265108 0.5231350484 -0.8289265108 0.000000000 0.000000000
0.4040000000 0.000000000 0.000000000 0.5168702792 -0.8328472571 0.5168702792 -0.8328472571 0.000000000 0.000000000
0.4070000000 0.000000000 0.000000000 0.5105761266 -0.8367206571 0.5105761266 -0.8367206571 0.000000000 0.000000000
0.4100000000 0.000000000 0.000000000 0.5042529485 -0.8405464907 0.5042529485 -0.8405464907 0.000000000 0.000000000
0.4130000000 0.000000000 0.000000000 0.4979011043 -0.8443245404 0.4979011043 -0.8443245404 0.000000000 0.000000000
0.4160000000 0.000000000 0.000000000 0.4915209550 -0.8480545914 0.4915209550 -0.8480545914 0.000000000 0.000000000
0.4190000000 0.000000000 0.000000000 0.4851128635 -0.8517364316 0.4851128635 -0.8517364316 0.000000000 0.000000000
0.4220000000 0.000000000 0.000000000 0.4786771939 -0.8553698517 0.4786771939 -0.8553698517 0.000000000 0.000000000
0.4250000000 0.000000000 0.000000000 0.4722143122 -0.8589546452 0.4722143122 -0.8589546452 0.000000000 0.000000000
0.4280000000 0.000000000 0.000000000 0.4657245858 -0.8624906083 0.4657245858 -0.8624906083 0.000000000 0.000000000
0.4310000000 0.000000000 0.000000000 0.4592083835 -0.8659775399 0.4592083835 -0.8659775399 0.000000000 0.000000000
0.4340000000 0.000000000 0.000000000 0.4526660758 -0.8694152420 0.4526660758 -0.8694152420 0.000000000 0.000000000
0.4370000000 0.000000000 0.000000000 0.4460980347 -0.8728035189 0.4460980347 -0.8728035189 0.000000000 0.000000000
0.4400000000 0.000000000 0.000000000 0.4395046335 -0.8761421781 0.4395046335 -0.8761421781 0.000000000 0.000000000
0.4430000000 0.000000000 0.000000000 0.4328862471 -0.8794310298 0.4328862471 -0.8794310298 0.000000000 0.000000000
0.4460000000 0.000000000 0.000000000 0.4262432517 -0.8826698871 0.4262432517 -0.8826698871 0.000000000 0.000000000
0.4490000000 0.000000000 0.000000000 0.4195760249 -0.8858585657 0.4195760249 -0.8858585657 0.000000000 0.000000000
0.4520000000 0.000000000 0.000000000 0.4128849458 -0.8889968845 0.4128849458 -0.8889968845 0.000000000 0.000000000
0.4550000000 0.000000000 0.000000000 0.4061703947 -0.8920846650 0.4061703947 -0.8920846650 0.000000000 0.000000000
0.4580000000 0.000000000 0.000000000 0.3994327534 -0.8951217317 0.3994327534 -0.8951217317 0.000000000 0.000000000
0.4610000000 0.000000000 0.000000000 0.3926724049 -0.8981079120 0.3926724049 -0.8981079120 0.000000000 0.000000000
0.4640000000 0.000000000 0.000000000 0.3858897335 -0.9010430360 0.3858897335 -0.9010430360 0.000000000 0.000000000
0.4670000000 0.000000000 0.000000000 0.3790851248 -0.9039269369 0.3790851248 -0.9039269369 0.000000000 0.000000000
0.4700000000 0.000000000 0.000000000 0.3722589656 -0.9067594508 0.3722589656 -0.9067594508 0.000000000 0.000000000
0.4730000000 0.000000000 0.000000000 0.3654116440 -0.9095404167 0.3654116440 -0.9095404167 0.000000000 0.000000000
0.4760000000 0.000000000 0.000000000 0.3585435492 -0.9122696764 0.3585435492 -0.9122696764 0.000000000 0.000000000
0.4790000000 0.000000000 0.000000000 0.3516550717 -0.9149470748 0.3516550717 -0.9149470748 0.000000000 0.000000000
0.4820000000 0.000000000 0.000000000 0.3447466031 -0.9175724597 0.3447466031 -0.9175724597 0.000000000 0.000000000
0.4850000000 0.000000000 0.000000000 0.3378185361 -0.9201456819 0.3378185361 -0.9201456819 0.000000000 0.000000000
0.4880000000 0.000000000 0.000000000 0.3308712645 -0.9226665950 0.3308712645 -0.9226665950 0.000000000 0.000000000
0.4910000000 0.000000000 0.000000000 0.3239051834 -0.9251350557 0.3239051834 -0.9251350557 0.000000000 0.000000000
0.4940000000 0.000000000 0.000000000 0.3169206887 -0.9275509238 0.3169206887 -0.9275509238 0.000000000 0.000000000
0.4970000000 0.000000000 0.000000000 0.3099181775 -0.9299140618 0.3099181775 -0.9299140618 0.000000000 0.000000000
0.5000000000 0.000000000 0.000000000 0.3028980479 -0.9322243355 0.3028980479 -0.9322243355 0.000000000 0.000000000
0.5030000000 0.000000000 0.000000000 0.2958606989 -0.9344816135 0.2958606989 -0.9344816135 0.000000000 0.000000000
0.5060000000 0.000000000 0.000000000 0.2888065307 -0.9366857675 0.2888065307 -0.9366857675 0.000000000 0.000000000
0.5090000000 0.000000000 0.000000000 0.2817359442 -0.9388366721 0.2817359442 -0.9388366721 0.000000000 0.000000000
0.5120000000 0.000000000 0.000000000 0.2746493413 -0.9409342052 0.2746493413 -0.9409342052 0.000000000 0.000000000
0.5150000000 0.000000000 0.000000000 0.2675471251 -0.9429782474 0.2675471251 -0.9429782474 0.000000000 0.000000000
0.5180000000 0.000000000 0.000000000 0.2604296991 -0.9449686825 0.2604296991 -0.9449686825 0.000000000 0.000000000
0.5210000000 0.000000000 0.000000000 0.2532974681 -0.9469053975 0.2532974681 -0.9469053975 0.000000000 0.000000000
0.5240000000 0.000000000 0.000000000 0.2461508374 -0.9487882822 0.2461508374 -0.9487882822 0.000000000 0.000000000
0.5270000000 0.000000000 0.000000000 0.2389902134 -0.9506172295 0.2389902134 -0.9506172295 0.000000000 0.000000000
0.5300000000 0.000000000 0.000000000 0.2318160031 -0.9523921355 0.2318160031 -0.9523921355 0.000000000 0.000000000
0.5330000000 0.000000000 0.000000000 0.2246286144 -0.9541128994 0.2246286144 -0.9541128994 0.000000000 0.000000000
0.5360000000 0.000000000 0.000000000 0.2174284559 -0.9557794232 0.2174284559 -0.9557794232 0.000000000 0.000000000
0.5390000000 0.000000000 0.000000000 0.2102159368 -0.9573916122 0.2102159368 -0.9573916122 0.000000000 0.000000000
0.5420000000 0.000000000 0.000000000 0.2029914673 -0.9589493748 0.2029914673 -0.9589493748 0.000000000 0.000000000
0.5450000000 0.000000000 0.000000000 0.1957554579 -0.9604526224 0.1957554579 -0.9604526224 0.000000000 0.000000000
0.5480000000 0.000000000 0.000000000 0.1885083202 -0.9619012696 0.1885083202 -0.9619012696 0.000000000 0.000000000
0.5510000000 0.000000000 0.000000000 0.1812504660 -0.9632952339 0.1812504660 -0.9632952339 0.000000000 0.000000000
0.5540000000 0.000000000 0.000000000 0.1739823079 -0.9646344363 0.1739823079 -0.9646344363 0.000000000 0.000000000
0.5570000000 0.000000000 0.000000000 0.1667042592 -0.9659188005 0.1667042592 -0.9659188005 0.000000000 0.000000000
0.5600000000 0.000000000 0.000000000 0.1594167336 -0.9671482535 0.1594167336 -0.9671482535 0.000000000 0.000000000
0.5630000000 0.000000000 0.000000000 0.1521201453 -0.9683227254 0.1521201453 -0.9683227254 0.000000000 0.000000000
0.5660000000 0.000000000 0.000000000 0.1448149092 -0.9694421495 0.1448149092 -0.9694421495 0.000000000 0.000000000
0.5690000000 0.000000000 0.000000000 0.1375014406 -0.9705064621 0.1375014406 -0.9705064621 0.000000000 0.000000000
0.5720000000 0.000000000 0.000000000 0.1301801552 -0.9715156027 0.1301801552 -0.9715156027 0.000000000 0.000000000
0.5750000000 0.000000000 0.000000000 0.1228514693 -0.9724695140 0.1228514693 -0.9724695140 0.000000000 0.000000000
0.5780000000 0.000000000 0.000000000 0.1155157994 -0.9733681417 0.1155157994 -0.9733681417 0.000000000 0.000000000
0.5810000000 0.000000000 0.000000000 0.1081735626 -0.9742114347 0.1081735626 -0.9742114347 0.000000000 0.000000000
0.5840000000 0.000000000 0.000000000 0.1008251762 -0.9749993451 0.1008251762 -0.9749993451 0.000000000 0.000000000
0.5870000000 0.000000000 0.000000000 0.09347105812 -0.9757318281 0.09347105812 -0.9757318281 0.000000000 0.000000000
0.5900000000 0.000000000 0.000000000 0.08611162631 -0.9764088421 0.08611162631 -0.9764088421 0.000000000 0.000000000
0.5930000000 0.000000000 0.000000000 0.07874729917 -0.9770303486 0.07874729917 -0.9770303486 0.000000000 0.000000000
0.5960000000 0.000000000 0.000000000 0.07137849535 -0.9775963122 0.07137849535 -0.9775963122 0.000000000 0.000000000
0.5990000000 0.000000000 0.000000000 0.06400563376 -0.9781067007 0.06400563376 -0.9781067007 0.000000000 0.000000000
0.6020000000 0.000000000 0.000000000 0.05662913353 -0.9785614852 0.05662913353 -0.9785614852 0.000000000 0.000000000
0.6050000000 0.000000000 0.000000000 0.04924941402 -0.9789606398 0.04924941402 -0.9789606398 0.000000000 0.000000000
0.6080000000 0.000000000 0.000000000 0.04186689474 -0.9793041419 0.04186689474 -0.9793041419 0.000000000 0.000000000
0.6110000000 0.000000000 0.000000000 0.03448199539 -0.9795919718 0.03448199539 -0.9795919718 0.000000000 0.000000000
0.6140000000 0.000000000 0.000000000 0.02709513578 -0.9798241132 0.02709513578 -0.9798241132 0.000000000 0.000000000
0.6170000000 0.000000000 0.000000000 0.01970673585 -0.9800005529 0.01970673585 -0.9800005529 0.000000000 0.000000000
0.6200000000 0.000000000 0.000000000 0.01231721562 -0.9801212809 0.01231721562 -0.9801212809 0.000000000 0.000000000
0.6230000000 0.000000000 0.000000000 0.004926995174 -0.9801862904 0.004926995174 -0.9801862904 0.000000000 0.000000000
0.6260000000 0.000000000 0.000000000 -0.002463505367 -0.9801955776 -0.002463505367 -0.9801955776 0.000000000 0.000000000
0.6290000000 0.000000000 0.000000000 -0.009853865862 -0.9801491420 -0.009853865862 -0.9801491420 0.000000000 0.000000000
0.6320000000 0.000000000 0.000000000 -0.01724366618 -0.9800469862 -0.01724366618 -0.9800469862 0.000000000 0.000000000
0.6350000000 0.000000000 0.000000000 -0.02463248621 -0.9798891161 -0.02463248621 -0.9798891161 0.000000000 0.000000000
0.6380000000 0.000000000 0.000000000 -0.03201990593 -0.9796755406 -0.03201990593 -0.9796755406 0.000000000 0.000000000
0.6410000000 0.000000000 0.000000000 -0.03940550535 -0.9794062718 -0.03940550535 -0.9794062718 0.000000000 0.000000000
0.6440000000 0.000000000 0.000000000 -0.04678886462 -0.9790813252 -0.04678886462 -0.9790813252 0.000000000 0.000000000
0.6470000000 0.000000000 0.000000000 -0.05416956402 -0.9787007191 -0.05416956402 -0.9787007191 0.000000000 0.000000000
0.6500000000 0.000000000 0.000000000 -0.06154718394 -0.9782644751 -0.06154718394 -0.9782644751 0.000000000 0.000000000
0.6530000000 0.000000000 0.000000000 -0.06892130499 -0.9777726182 -0.06892130499 -0.9777726182 0.000000000 0.000000000
0.6560000000 0.000000000 0.000000000 -0.07629150795 -0.9772251762 -0.07629150795 -0.9772251762 0.000000000 0.000000000
0.6590000000 0.000000000 0.000000000 -0.08365737385 -0.9766221802 -0.08365737385 -0.9766221802 0.000000000 0.000000000
0.6620000000 0.000000000 0.000000000 -0.09101848394 -0.9759636647 -0.09101848394 -0.9759636647 0.000000000 0.000000000
0.6650000000 0.000000000 0.000000000 -0.09837441975 -0.9752496669 -0.09837441975 -0.9752496669 0.000000000 0.000000000
0.6680000000 0.000000000 0.000000000 -0.1057247631 -0.9744802274 -0.1057247631 -0.9744802274 0.000000000 0.000000000
0.6710000000 0.000000000 0.000000000 -0.1130690962 -0.9736553901 -0.1130690962 -0.9736553901 0.000000000 0.000000000
0.6740000000 0.000000000 0.000000000 -0.1204070014 -0.9727752018 -0.1204070014 -0.9727752018 0.000000000 0.000000000
0.6770000000 0.000000000 0.000000000 -0.1277380616 -0.9718397125 -0.1277380616 -0.9718397125 0.000000000 0.000000000
0.6800000000 0.000000000 0.000000000 -0.1350618601 -0.9708489754 -0.1350618601 -0.9708489754 0.000000000 0.000000000
0.6830000000 0.000000000 0.000000000 -0.1423779805 -0.9698030469 -0.1423779805 -0.9698030469 0.000000000 0.000000000
0.6860000000 0.000000000 0.000000000 -0.1496860070 -0.9687019864 -0.1496860070 -0.9687019864 0.000000000 0.000000000
0.6890000000 0.000000000 0.000000000 -0.1569855240 -0.9675458565 -0.1569855240 -0.9675458565 0.000000000 0.000000000
0.6920000000 0.000000000 0.000000000 -0.1642761165 -0.9663347229 -0.1642761165 -0.9663347229 0.000000000 0.000000000
0.6950000000 0.000000000 0.000000000 -0.1715573702 -0.9650686545 -0.1715573702 -0.9650686545 0.000000000 0.000000000
0.6980000000 0.000000000 0.000000000 -0.1788288711 -0.9637477232 -0.1788288711 -0.9637477232 0.000000000 0.000000000
0.7010000000 0.000000000 0.000000000 -0.1860902058 -0.9623720042 -0.1860902058 -0.9623720042 0.000000000 0.000000000
0.7040000000 0.000000000 0.000000000 -0.1933409615 -0.9609415756 -0.1933409615 -0.9609415756 0.000000000 0.000000000
0.7070000000 0.000000000 0.000000000 -0.2005807261 -0.9594565188 -0.2005807261 -0.9594565188 0.000000000 0.000000000
0.7100000000 0.000000000 0.000000000 -0.2078090879 -0.9579169182 -0.2078090879 -0.9579169182 0.000000000 0.000000000
0.7130000000 0.000000000 0.000000000 -0.2150256360 -0.9563228613 -0.2150256360 -0.9563228613 0.000000000 0.000000000
0.7160000000 0.000000000 0.000000000 -0.2222299602 -0.9546744387 -0.2222299602 -0.9546744387 0.000000000 0.000000000
0.7190000000 0.000000000 0.000000000 -0.2294216510 -0.9529717442 -0.2294216510 -0.9529717442 0.000000000 0.000000000
0.7220000000 0.000000000 0.000000000 -0.2366002994 -0.9512148745 -0.2366002994 -0.9512148745 0.000000000 0.000000000
0.7250000000 0.000000000 0.000000000 -0.2437654975 -0.9494039295 -0.2437654975 -0.9494039295 0.000000000 0.000000000
0.7280000000 0.000000000 0.000000000 -0.2509168378 -0.9475390122 -0.2509168378 -0.9475390122 0.000000000 0.000000000
0.7310000000 0.000000000 0.000000000 -0.2580539138 -0.9456202286 -0.2580539138 -0.9456202286 0.000000000 0.000000000
0.7340000000 0.000000000 0.000000000 -0.2651763198 -0.9436476877 -0.2651763198 -0.9436476877 0.000000000 0.000000000
0.7370000000 0.000000000 0.000000000 -0.2722836508 -0.9416215018 -0.2722836508 -0.9416215018 0.000000000 0.000000000
0.7400000000 0.000000000 0.000000000 -0.2793755029 -0.9395417859 -0.2793755029 -0.9395417859 0.000000000 0.000000000
0.7430000000 0.000000000 0.000000000 -0.2864514729 -0.9374086584 -0.2864514729 -0.9374086584 0.000000000 0.000000000
0.7460000000 0.000000000 0.000000000 -0.2935111585 -0.9352222404 -0.2935111585 -0.9352222404 0.000000000 0.000000000
0.7490000000 0.000000000 0.000000000 -0.3005541584 -0.9329826563 -0.3005541584 -0.9329826563 0.000000000 0.000000000
0.7520000000 0.000000000 0.000000000 -0.3075800723 -0.9306900334 -0.3075800723 -0.9306900334 0.000000000 0.000000000
0.7550000000 0.000000000 0.000000000 -0.3145885005 -0.9283445020 -0.3145885005 -0.9283445020 0.000000000 0.000000000
0.7580000000 0.000000000 0.000000000 -0.3215790449 -0.9259461955 -0.3215790449 -0.9259461955 0.000000000 0.000000000
0.7610000000 0.000000000 0.000000000 -0.3285513079 -0.9234952502 -0.3285513079 -0.9234952502 0.000000000 0.000000000
0.7640000000 0.000000000 0.000000000 -0.3355048932 -0.9209918055 -0.3355048932 -0.9209918055 0.000000000 0.000000000
0.7670000000 0.000000000 0.000000000 -0.3424394056 -0.9184360036 -0.3424394056 -0.9184360036 0.000000000 0.000000000
0.7700000000 0.000000000 0.000000000 -0.3493544507 -0.9158279898 -0.3493544507 -0.9158279898 0.000000000 0.000000000
0.7730000000 0.000000000 0.000000000 -0.3562496354 -0.9131679125 -0.3562496354 -0.9131679125 0.000000000 0.000000000
0.7760000000 0.000000000 0.000000000 -0.3631245679 -0.9104559228 -0.3631245679 -0.9104559228 0.000000000 0.000000000
0.7790000000 0.000000000 0.000000000 -0.3699788572 -0.9076921749 -0.3699788572 -0.9076921749 0.000000000 0.000000000
0.7820000000 0.000000000 0.000000000 -0.3768121137 -0.9048768259 -0.3768121137 -0.9048768259 0.000000000 0.000000000
0.7850000000 0.000000000 0.000000000 -0.3836239490 -0.9020100359 -0.3836239490 -0.9020100359 0.000000000 0.000000000
0.7880000000 0.000000000 0.000000000 -0.3904139758 -0.8990919679 -0.3904139758 -0.8990919679 0.000000000 0.000000000
0.7910000000 0.000000000 0.000000000 -0.3971818080 -0.8961227876 -0.3971818080 -0.8961227876 0.000000000 0.000000000
0.7940000000 0.000000000 0.000000000 -0.4039270610 -0.8931026641 -0.4039270610 -0.8931026641 0.000000000 0.000000000
0.7970000000 0.000000000 0.000000000 -0.4106493513 -0.8900317688 -0.4106493513 -0.8900317688 0.000000000 0.000000000
0.8000000000 0.000000000 0.000000000 -0.4173482967 -0.8869102764 -0.4173482967 -0.8869102764 0.000000000 0.000000000
0.8030000000 0.000000000 0.000000000 -0.4240235165 -0.8837383644 -0.4240235165 -0.8837383644 0.000000000 0.000000000
0.8060000000 0.000000000 0.000000000 -0.4306746310 -0.8805162130 -0.4306746310 -0.8805162130 0.000000000 0.000000000
0.8090000000 0.000000000 0.000000000 -0.4373012623 -0.8772440055 -0.4373012623 -0.8772440055 0.000000000 0.000000000
0.8120000000 0.000000000 0.000000000 -0.4439030336 -0.8739219278 -0.4439030336 -0.8739219278 0.000000000 0.000000000
0.8150000000 0.000000000 0.000000000 -0.4504795697 -0.8705501688 -0.4504795697 -0.8705501688 0.000000000 0.000000000
0.8180000000 0.000000000 0.000000000 -0.4570304965 -0.8671289203 -0.4570304965 -0.8671289203 0.000000000 0.000000000
0.8210000000 0.000000000 0.000000000 -0.4635554418 -0.8636583766 -0.4635554418 -0.8636583766 0.000000000 0.000000000
0.8240000000 0.000000000 0.000000000 -0.4700540346 -0.8601387351 -0.4700540346 -0.8601387351 0.000000000 0.000000000
0.8270000000 0.000000000 0.000000000 -0.4765259055 -0.8565701959 -0.4765259055 -0.8565701959 0.000000000 0.000000000
0.8300000000 0.000000000 0.000000000 -0.4829706865 -0.8529529619 -0.4829706865 -0.8529529619 0.000000000 0.000000000
0.8330000000 0.000000000 0.000000000 -0.4893880113 -0.8492872386 -0.4893880113 -0.8492872386 0.000000000 0.000000000
0.8360000000 0.000000000 0.000000000 -0.4957775150 -0.8455732344 -0.4957775150 -0.8455732344 0.000000000 0.000000000
0.8390000000 0.000000000 0.000000000 -0.5021388344 -0.8418111606 -0.5021388344 -0.8418111606 0.000000000 0.000000000
0.8420000000 0.000000000 0.000000000 -0.5084716079 -0.8380012309 -0.5084716079 -0.8380012309 0.000000000 0.000000000
0.8450000000 0.000000000 0.000000000 -0.5147754755 -0.8341436620 -0.5147754755 -0.8341436620 0.000000000 0.000000000
0.8480000000 0.000000000 0.000000000 -0.5210500788 -0.8302386732 -0.5210500788 -0.8302386732 0.000000000 0.000000000
0.8510000000 0.000000000 0.000000000 -0.5272950612 -0.8262864864 -0.5272950612 -0.8262864864 0.000000000 0.000000000
0.8540000000 0.000000000 0.000000000 -0.5335100675 -0.8222873263 -0.5335100675 -0.8222873263 0.000000000 0.000000000
0.8570000000 0.000000000 0.000000000 -0.5396947444 -0.8182414204 -0.5396947444 -0.8182414204 0.000000000 0.000000000
0.8600000000 0.000000000 0.000000000 -0.5458487405 -0.8141489984 -0.5458487405 -0.8141489984 0.000000000 0.000000000
0.8630000000 0.000000000 0.000000000 -0.5519717058 -0.8100102933 -0.5519717058 -0.8100102933 0.000000000 0.000000000
0.8660000000 0.000000000 0.000000000 -0.5580632922 -0.8058255401 -0.5580632922 -0.8058255401 0.000000000 0.000000000
0.8690000000 0.000000000 0.000000000 -0.5641231535 -0.8015949768 -0.5641231535 -0.8015949768 0.000000000 0.000000000
0.8720000000 0.000000000 0.000000000 -0.5701509451 -0.7973188439 -0.5701509451 -0.7973188439 0.000000000 0.000000000
0.8750000000 0.000000000 0.000000000 -0.5761463245 -0.7929973846 -0.5761463245 -0.7929973846 0.000000000 0.000000000
0.8780000000 0.000000000 0.000000000 -0.5821089507 -0.7886308444 -0.5821089507 -0.7886308444 0.000000000 0.000000000
0.8810000000 0.000000000 0.000000000 -0.5880384848 -0.7842194716 -0.5880384848 -0.7842194716 0.000000000 0.000000000
0.8840000000 0.000000000 0.000000000 -0.5939345897 -0.7797635169 -0.5939345897 -0.7797635169 0.000000000 0.000000000
0.8870000000 0.000000000 0.000000000 -0.5997969302 -0.7752632338 -0.5997969302 -0.7752632338 0.000000000 0.000000000
0.8900000000 0.000000000 0.000000000 -0.6056251730 -0.7707188780 -0.6056251730 -0.7707188780 0.000000000 0.000000000
0.8930000000 0.000000000 0.000000000 -0.6114189869 -0.7661307079 -0.6114189869 -0.7661307079 0.000000000 0.000000000
0.8960000000 0.000000000 0.000000000 -0.6171780425 -0.7614989843 -0.6171780425 -0.7614989843 0.000000000 0.000000000
0.8990000000 0.000000000 0.000000000 -0.6229020123 -0.7568239705 -0.6229020123 -0.7568239705 0.000000000 0.000000000
0.9020000000 0.000000000 0.000000000 -0.6285905709 -0.7521059322 -0.6285905709 -0.7521059322 0.000000000 0.000000000
0.9050000000 0.000000000 0.000000000 -0.6342433951 -0.7473451378 -0.6342433951 -0.7473451378 0.000000000 0.000000000
0.9080000000 0.000000000 0.000000000 -0.6398601633 -0.7425418578 -0.6398601633 -0.7425418578 0.000000000 0.000000000
0.9110000000 0.000000000 0.000000000 -0.6454405564 -0.7376963652 -0.6454405564 -0.7376963652 0.000000000 0.000000000
0.9140000000 0.000000000 0.000000000 -0.6509842571 -0.7328089357 -0.6509842571 -0.7328089357 0.000000000 0.000000000
0.9170000000 0.000000000 0.000000000 -0.6564909501 -0.7278798469 -0.6564909501 -0.7278798469 0.000000000 0.000000000
0.9200000000 0.000000000 0.000000000 -0.6619603226 -0.7229093792 -0.6619603226 -0.7229093792 0.000000000 0.000000000
0.9230000000 0.000000000 0.000000000 -0.6673920634 -0.7178978150 -0.6673920634 -0.7178978150 0.000000000 0.000000000
0.9260000000 0.000000000 0.000000000 -0.6727858640 -0.7128454393 -0.6727858640 -0.7128454393 0.000000000 0.000000000
0.9290000000 0.000000000 0.000000000 -0.6781414176 -0.7077525393 -0.6781414176 -0.7077525393 0.000000000 0.000000000
0.9320000000 0.000000000 0.000000000 -0.6834584197 -0.7026194046 -0.6834584197 -0.7026194046 0.000000000 0.000000000
0.9350000000 0.000000000 0.000000000 -0.6887365682 -0.6974463268 -0.6887365682 -0.6974463268 0.000000000 0.000000000
0.9380000000 0.000000000 0.000000000 -0.6939755629 -0.6922336002 -0.6939755629 -0.6922336002 0.000000000 0.000000000
0.9410000000 0.000000000 0.000000000 -0.6991751061 -0.6869815210 -0.6991751061 -0.6869815210 0.000000000 0.000000000
0.9440000000 0.000000000 0.000000000 -0.7043349020 -0.6816903879 -0.7043349020 -0.6816903879 0.000000000 0.000000000
0.9470000000 0.000000000 0.000000000 -0.7094546575 -0.6763605016 -0.7094546575 -0.6763605016 0.000000000 0.000000000
0.9500000000 0.000000000 0.000000000 -0.7145340815 -0.6709921650 -0.7145340815 -0.6709921650 0.000000000 0.000000000
0.9530000000 0.000000000 0.000000000 -0.7195728851 -0.6655856835 -0.7195728851 -0.6655856835 0.000000000 0.000000000
0.9560000000 0.000000000 0.000000000 -0.7245707820 -0.6601413644 -0.7245707820 -0.6601413644 0.000000000 0.000000000
0.9590000000 0.000000000 0.000000000 -0.7295274881 -0.6546595171 -0.7295274881 -0.6546595171 0.000000000 0.000000000
0.9620000000 0.000000000 0.000000000 -0.7344427214 -0.6491404533 -0.7344427214 -0.6491404533 0.000000000 0.000000000
0.9650000000 0.000000000 0.000000000 -0.7393162027 -0.6435844867 -0.7393162027 -0.6435844867 0.000000000 0.000000000
0.9680000000 0.000000000 0.000000000 -0.7441476549 -0.6379919332 -0.7441476549 -0.6379919332 0.000000000 0.000000000
0.9710000000 0.000000000 0.000000000 -0.7489368033 -0.6323631108 -0.7489368033 -0.6323631108 0.000000000 0.000000000
0.9740000000 0.000000000 0.000000000 -0.7536833756 -0.6266983393 -0.7536833756 -0.6266983393 0.000000000 0.000000000
0.9770000000 0.000000000 0.000000000 -0.7583871021 -0.6209979409 -0.7583871021 -0.6209979409 0.000000000 0.000000000
0.9800000000 0.000000000 0.000000000 -0.7630477152 -0.6152622396 -0.7630477152 -0.6152622396 0.000000000 0.000000000
0.9830000000 0.000000000 0.000000000 -0.7676649501 -0.6094915614 -0.7676649501 -0.6094915614 0.000000000 0.000000000
0.9860000000 0.000000000 0.000000000 -0.7722385444 -0.6036862345 -0.7722385444 -0.6036862345 0.000000000 0.000000000
0.9890000000 0.000000000 0.000000000 -0.7767682378 -0.5978465889 -0.7767682378 -0.5978465889 0.000000000 0.000000000
0.9920000000 0.000000000 0.000000000 -0.7812537731 -0.5919729565 -0.7812537731 -0.5919729565 0.000000000 0.000000000
0.9950000000 0.000000000 0.000000000 -0.7856948951 -0.5860656712 -0.7856948951 -0.5860656712 0.000000000 0.000000000
0.9980000000 0.000000000 0.000000000 -0.7900913515 -0.5801250688 -0.7900913515 -0.5801250688 0.000000000 0.000000000
1.001000000 0.000000000 0.000000000 -0.7944428922 -0.5741514872 -0.7944428922 -0.5741514872 0.000000000 0.000000000
1.004000000 0.000000000 0.000000000 -0.7987492699 -0.5681452657 -0.7987492699 -0.5681452657 0.000000000 0.000000000
1.007000000 0.000000000 0.000000000 -0.8030102398 -0.5621067461 -0.8030102398 -0.5621067461 0.000000000 0.000000000
1.010000000 0.000000000 0.000000000 -0.8072255596 -0.5560362713 -0.8072255596 -0.5560362713 0.000000000 0.000000000
1.013000000 0.000000000 0.000000000 -0.8113949898 -0.5499341867 -0.8113949898 -0.5499341867 0.000000000 0.000000000
1.016000000 0.000000000 0.000000000 -0.8155182932 -0.5438008391 -0.8155182932 -0.5438008391 0.000000000 0.000000000
1.019000000 0.000000000 0.000000000 -0.8195952355 -0.5376365771 -0.8195952355 -0.5376365771 0.000000000 0.000000000
1.022000000 0.000000000 0.000000000 -0.8236255850 -0.5314417512 -0.8236255850 -0.5314417512 0.000000000 0.000000000
1.025000000 0.000000000 0.000000000 -0.8276091124 -0.5252167136 -0.8276091124 -0.5252167136 0.000000000 0.000000000
1.028000000 0.000000000 0.000000000 -0.8315455914 -0.5189618181 -0.8315455914 -0.5189618181 0.000000000 0.000000000
1.031000000 0.000000000 0.000000000 -0.8354347981 -0.5126774203 -0.8354347981 -0.5126774203 0.000000000 0.000000000
1.034000000 0.000000000 0.000000000 -0.8392765115 -0.5063638775 -0.8392765115 -0.5063638775 0.000000000 0.000000000
1.037000000 0.000000000 0.000000000 -0.8430705131 -0.5000215486 -0.8430705131 -0.5000215486 0.000000000 0.000000000
1.040000000 0.000000000 0.000000000 -0.8468165874 -0.4936507941 -0.8468165874 -0.4936507941 0.000000000 0.000000000
1.043000000 0.000000000 0.000000000 -0.8505145212 -0.4872519762 -0.8505145212 -0.4872519762 0.000000000 0.000000000
1.046000000 0.000000000 0.000000000 -0.8541641045 -0.4808254588 -0.8541641045 -0.4808254588 0.000000000 0.000000000
1.049000000 0.000000000 0.000000000 -0.8577651296 -0.4743716070 -0.8577651296 -0.4743716070 0.000000000 0.000000000
1.052000000 0.000000000 0.000000000 -0.8613173920 -0.4678907879 -0.8613173920 -0.4678907879 0.000000000 0.000000000
1.055000000 0.000000000 0.000000000 -0.8648206896 -0.4613833698 -0.8648206896 -0.4613833698 0.000000000 0.000000000
1.058000000 0.000000000 0.000000000 -0.8682748234 -0.4548497227 -0.8682748234 -0.4548497227 0.000000000 0.000000000
1.061000000 0.000000000 0.000000000 -0.8716795969 -0.4482902180 -0.8716795969 -0.4482902180 0.000000000 0.000000000
1.064000000 0.000000000 0.000000000 -0.8750348165 -0.4417052286 -0.8750348165 -0.4417052286 0.000000000 0.000000000
1.067000000 0.000000000 0.000000000 -0.8783402917 -0.4350951289 -0.8783402917 -0.4350951289 0.000000000 0.000000000
1.070000000 0.000000000 0.000000000 -0.8815958344 -0.4284602946 -0.8815958344 -0.4284602946 0.000000000 0.000000000
1.073000000 0.000000000 0.000000000 -0.8848012595 -0.4218011028 -0.8848012595 -0.4218011028 0.000000000 0.000000000
1.076000000 0.000000000 0.000000000 -0.8879563849 -0.4151179323 -0.8879563849 -0.4151179323 0.000000000 0.000000000
1.079000000 0.000000000 0.000000000 -0.8910610311 -0.4084111629 -0.8910610311 -0.4084111629 0.000000000 0.000000000
1.082000000 0.000000000 0.000000000 -0.8941150218 -0.4016811758 -0.8941150218 -0.4016811758 0.000000000 0.000000000
1.085000000 0.000000000 0.000000000 -0.8971181832 -0.3949283538 -0.8971181832 -0.3949283538 0.000000000 0.000000000
1.088000000 0.000000000 0.000000000 -0.9000703446 -0.3881530805 -0.9000703446 -0.3881530805 0.000000000 0.000000000
1.091000000 0.000000000 0.000000000 -0.9029713383 -0.3813557413 -0.9029713383 -0.3813557413 0.000000000 0.000000000
1.094000000 0.000000000 0.000000000 -0.9058209992 -0.3745367225 -0.9058209992 -0.3745367225 0.000000000 0.000000000
1.097000000 0.000000000 0.000000000 -0.9086191655 -0.3676964119 -0.9086191655 -0.3676964119 0.000000000 0.000000000
1.100000000 0.000000000 0.000000000 -0.9113656779 -0.3608351982 -0.9113656779 -0.3608351982 0.000000000 0.000000000
1.103000000 0.000000000 0.000000000 -0.9140603805 -0.3539534714 -0.9140603805 -0.3539534714 0.000000000 0.000000000
1.106000000 0.000000000 0.000000000 -0.9167031200 -0.3470516229 -0.9167031200 -0.3470516229 0.000000000 0.000000000
1.109000000 0.000000000 0.000000000 -0.9192937461 -0.3401300450 -0.9192937461 -0.3401300450 0.000000000 0.000000000
1.112000000 0.000000000 0.000000000 -0.9218321116 -0.3331891312 -0.9218321116 -0.3331891312 0.000000000 0.000000000
1.115000000 0.000000000 0.000000000 -0.9243180722 -0.3262292760 -0.9243180722 -0.3262292760 0.000000000 0.000000000
1.118000000 0.000000000 0.000000000 -0.9267514866 -0.3192508751 -0.9267514866 -0.3192508751 0.000000000 0.000000000
1.121000000 0.000000000 0.000000000 -0.9291322164 -0.3122543252 -0.9291322164 -0.3122543252 0.000000000 0.000000000
1.124000000 0.000000000 0.000000000 -0.9314601263 -0.3052400241 -0.9314601263 -0.3052400241 0.000000000 0.000000000
1.127000000 0.000000000 0.000000000 -0.9337350839 -0.2982083705 -0.9337350839 -0.2982083705 0.000000000 0.000000000
1.130000000 0.000000000 0.000000000 -0.9359569599 -0.2911597642 -0.9359569599 -0.2911597642 0.000000000 0.000000000
1.133000000 0.000000000 0.000000000 -0.9381256281 -0.2840946058 -0.9381256281 -0.2840946058 0.000000000 0.000000000
1.136000000 0.000000000 0.000000000 -0.9402409651 -0.2770132970 -0.9402409651 -0.2770132970 0.000000000 0.000000000
1.139000000 0.000000000 0.000000000 -0.9423028506 -0.2699162404 -0.9423028506 -0.2699162404 0.000000000 0.000000000
1.142000000 0.000000000 0.000000000 -0.9443111675 -0.2628038394 -0.9443111675 -0.2628038394 0.000000000 0.000000000
1.145000000 0.000000000 0.000000000 -0.9462658016 -0.2556764984 -0.9462658016 -0.2556764984 0.000000000 0.000000000
1.148000000 0.000000000 0.000000000 -0.9481666418 -0.2485346225 -0.9481666418 -0.2485346225 0.000000000 0.000000000
1.151000000 0.000000000 0.000000000 -0.9500135799 -0.2413786178 -0.9500135799 -0.2413786178 0.000000000 0.000000000
1.154000000 0.000000000 0.000000000 -0.9518065111 -0.2342088910 -0.9518065111 -0.2342088910 0.000000000 0.000000000
1.157000000 0.000000000 0.000000000 -0.9535453333 -0.2270258497 -0.9535453333 -0.2270258497 0.000000000 0.000000000
1.160000000 0.000000000 0.000000000 -0.9552299478 -0.2198299023 -0.9552299478 -0.2198299023 0.000000000 0.000000000
1.163000000 0.000000000 0.000000000 -0.9568602588 -0.2126214579 -0.9568602588 -0.2126214579 0.000000000 0.000000000
1.166000000 0.000000000 0.000000000 -0.9584361735 -0.2054009263 -0.9584361735 -0.2054009263 0.000000000 0.000000000
1.169000000 0.000000000 0.000000000 -0.9599576024 -0.1981687179 -0.9599576024 -0.1981687179 0.000000000 0.000000000
1.172000000 0.000000000 0.000000000 -0.9614244590 -0.1909252438 -0.9614244590 -0.1909252438 0.000000000 0.000000000
1.175000000 0.000000000 0.000000000 -0.9628366600 -0.1836709160 -0.9628366600 -0.1836709160 0.000000000 0.000000000
1.178000000 0.000000000 0.000000000 -0.9641941249 -0.1764061466 -0.9641941249 -0.1764061466 0.000000000 0.000000000
1.181000000 0.000000000 0.000000000 -0.9654967768 -0.1691313489 -0.9654967768 -0.1691313489 0.000000000 0.000000000
1.184000000 0.000000000 0.000000000 -0.9667445414 -0.1618469362 -0.9667445414 -0.1618469362 0.000000000 0.000000000
1.187000000 0.000000000 0.000000000 -0.9679373480 -0.1545533227 -0.9679373480 -0.1545533227 0.000000000 0.000000000
1.190000000 0.000000000 0.000000000 -0.9690751286 -0.1472509232 -0.9690751286 -0.1472509232 0.000000000 0.000000000
1.193000000 0.000000000 0.000000000 -0.9701578185 -0.1399401525 -0.9701578185 -0.1399401525 0.000000000 0.000000000
1.196000000 0.000000000 0.000000000 -0.9711853563 -0.1326214265 -0.9711853563 -0.1326214265 0.000000000 0.000000000
1.199000000 0.000000000 0.000000000 -0.9721576836 -0.1252951612 -0.9721576836 -0.1252951612 0.000000000 0.000000000
1.202000000 0.000000000 0.000000000 -0.9730747450 -0.1179617729 -0.9730747450 -0.1179617729 0.000000000 0.000000000
1.205000000 0.000000000 0.000000000 -0.9739364884 -0.1106216787 -0.9739364884 -0.1106216787 0.000000000 0.000000000
1.208000000 0.000000000 0.000000000 -0.9747428648 -0.1032752958 -0.9747428648 -0.1032752958 0.000000000 0.000000000
1.211000000 0.000000000 0.000000000 -0.9754938284 -0.09592304188 -0.9754938284 -0.09592304188 0.000000000 0.000000000
1.214000000 0.000000000 0.000000000 -0.9761893365 -0.08856533484 -0.9761893365 -0.08856533484 0.000000000 0.000000000
1.217000000 0.000000000 0.000000000 -0.9768293495 -0.08120259297 -0.9768293495 -0.08120259297 0.000000000 0.000000000
1.220000000 0.000000000 0.000000000 -0.9774138311 -0.07383523484 -0.9774138311 -0.07383523484 0.000000000 0.000000000
1.223000000 0.000000000 0.000000000 -0.9779427481 -0.06646367928 -0.9779427481 -0.06646367928 0.000000000 0.000000000
1.226000000 0.000000000 0.000000000 -0.9784160703 -0.05908834535 -0.9784160703 -0.05908834535 0.000000000 0.000000000
1.229000000 0.000000000 0.000000000 -0.9788337709 -0.05170965233 -0.9788337709 -0.05170965233 0.000000000 0.000000000
1.232000000 0.000000000 0.000000000 -0.9791958261 -0.04432801968 -0.9791958261 -0.04432801968 0.000000000 0.000000000
1.235000000 0.000000000 0.000000000 -0.9795022153 -0.03694386705 -0.9795022153 -0.03694386705 0.000000000 0.000000000
1.238000000 0.000000000 0.000000000 -0.9797529212 -0.02955761421 -0.9797529212 -0.02955761421 0.000000000 0.000000000
1.241000000 0.000000000 0.000000000 -0.9799479294 -0.02216968105 -0.9799479294 -0.02216968105 0.000000000 0.000000000
1.244000000 0.000000000 0.000000000 -0.9800872289 -0.01478048758 -0.9800872289 -0.01478048758 0.000000000 0.000000000
1.247000000 0.000000000 0.000000000 -0.9801708118 -0.007390453859 -0.9801708118 -0.007390453859 0.000000000 0.000000000
1.250000000 0.000000000 0.000000000 -0.9801986733 -1.200397168e-16 -0.9801986733 -1.200397168e-16 0.000000000 0.000000000
1.253000000 0.000000000 0.000000000 -0.9801708118 0.007390453859 -0.9801708118 0.007390453859 0.000000000 0.000000000
1.256000000 0.000000000 0.000000000 -0.9800872289 0.01478048758 -0.9800872289 0.01478048758 0.000000000 0.000000000
1.259000000 0.000000000 0.000000000 -0.9799479294 0.02216968105 -0.9799479294 0.02216968105 0.000000000 0.000000000
1.262000000 0.000000000 0.000000000 -0.9797529212 0.02955761421 -0.9797529212 0.02955761421 0.000000000 0.000000000
1.265000000 0.000000000 0.000000000 -0.9795022153 0.03694386705 -0.9795022153 0.03694386705 0.000000000 0.000000000
1.268000000 0.000000000 0.000000000 -0.9791958261 0.04432801968 -0.9791958261 0.04432801968 0.000000000 0.000000000
1.271000000 0.000000000 0.000000000 -0.9788337709 0.05170965233 -0.9788337709 0.05170965233 0.000000000 0.000000000
1.274000000 0.000000000 0.000000000 -0.9784160703 0.05908834535 -0.9784160703 0.05908834535 0.000000000 0.000000000
1.277000000 0.000000000 0.000000000 -0.9779427481 0.06646367928 -0.9779427481 0.06646367928 0.000000000 0.000000000
1.280000000 0.000000000 0.000000000 -0.9774138311 0.07383523484 -0.9774138311 0.07383523484 0.000000000 0.000000000
1.283000000 0.000000000 0.000000000 -0.9768293495 0.08120259297 -0.9768293495 0.08120259297 0.000000000 0.000000000
1.286000000 0.000000000 0.000000000 -0.9761893365 0.08856533484 -0.9761893365 0.08856533484 0.000000000 0.000000000
1.289000000 0.000000000 0.000000000 -0.9754938284 0.09592304188 -0.9754938284 0.09592304188 0.000000000 0.000000000
1.292000000 0.000000000 0.000000000 -0.9747428648 0.1032752958 -0.9747428648 0.1032752958 0.000000000 0.000000000
1.295000000 0.000000000 0.000000000 -0.9739364884 0.1106216787 -0.9739364884 0.1106216787 0.000000000 0.000000000
1.298000000 0.000000000 0.000000000 -0.9730747450 0.1179617729 -0.9730747450 0.1179617729 0.000000000 0.000000000
1.301000000 0.000000000 0.000000000 -0.9721576836 0.1252951612 -0.9721576836 0.1252951612 0.000000000 0.000000000
1.304000000 0.000000000 0.000000000 -0.9711853563 0.1326214265 -0.9711853563 0.1326214265 0.000000000 0.000000000
1.307000000 0.000000000 0.000000000 -0.9701578185 0.1399401525 -0.9701578185 0.1399401525 0.000000000 0.000000000
1.310000000 0.000000000 0.000000000 -0.9690751286 0.1472509232 -0.9690751286 0.1472509232 0.000000000 0.000000000
1.313000000 0.000000000 0.000000000 -0.9679373480 0.1545533227 -0.9679373480 0.1545533227 0.000000000 0.000000000
1.316000000 0.000000000 0.000000000 -0.9667445414 0.1618469362 -0.9667445414 0.1618469362 0.000000000 0.000000000
1.319000000 0.000000000 0.000000000 -0.9654967768 0.1691313489 -0.9654967768 0.1691313489 0.000000000 0.000000000
1.322000000 0.000000000 0.000000000 -0.9641941249 0.1764061466 -0.9641941249 0.1764061466 0.000000000 0.000000000
1.325000000 0.000000000 0.000000000 -0.9628366600 0.1836709160 -0.9628366600 0.1836709160 0.000000000 0.000000000
1.328000000 0.000000000 0.000000000 -0.9614244590 0.1909252438 -0.9614244590 0.1909252438 0.000000000 0.000000000
1.331000000 0.000000000 0.000000000 -0.9599576024 0.1981687179 -0.9599576024 0.1981687179 0.000000000 0.000000000
1.334000000 0.000000000 0.000000000 -0.9584361735 0.2054009263 -0.9584361735 0.2054009263 0.000000000 0.000000000
1.337000000 0.000000000 0.000000000 -0.9568602588 0.2126214579 -0.9568602588 0.2126214579 0.000000000 0.000000000
1.340000000 0.000000000 0.000000000 -0.9552299478 0.2198299023 -0.9552299478 0.2198299023 0.000000000 0.000000000
1.343000000 0.000000000 0.000000000 -0.9535453333 0.2270258497 -0.9535453333 0.2270258497 0.000000000 0.000000000
1.346000000 0.000000000 0.000000000 -0.9518065111 0.2342088910 -0.9518065111 0.2342088910 0.000000000 0.000000000
1.349000000 0.000000000 0.000000000 -0.9500135799 0.2413786178 -0.9500135799 0.2413786178 0.000000000 0.000000000
1.352000000 0.000000000 0.000000000 -0.9481666418 0.2485346225 -0.9481666418 0.2485346225 0.000000000 0.000000000
1.355000000 0.000000000 0.000000000 -0.9462658016 0.2556764984 -0.9462658016 0.2556764984 0.000000000 0.000000000
1.358000000 0.000000000 0.000000000 -0.9443111675 0.2628038394 -0.9443111675 0.2628038394 0.000000000 0.000000000
1.361000000 0.000000000 0.000000000 -0.9423028506 0.2699162404 -0.9423028506 0.2699162404 0.000000000 0.000000000
1.364000000 0.000000000 0.000000000 -0.9402409651 0.2770132970 -0.9402409651 0.2770132970 0.000000000 0.000000000
1.367000000 0.000000000 0.000000000 -0.9381256281 0.2840946058 -0.9381256281 0.2840946058 0.000000000 0.000000000
1.370000000 0.000000000 0.000000000 -0.9359569599 0.2911597642 -0.9359569599 0.2911597642 0.000000000 0.000000000
1.373000000 0.000000000 0.000000000 -0.9337350839 0.2982083705 -0.9337350839 0.2982083705 0.000000000 0.000000000
1.376000000 0.000000000 0.000000000 -0.9314601263 0.3052400241 -0.9314601263 0.3052400241 0.000000000 0.000000000
1.379000000 0.000000000 0.000000000 -0.9291322164 0.3122543252 -0.9291322164 0.3122543252 0.000000000 0.000000000
1.382000000 0.000000000 0.000000000 -0.9267514866 0.3192508751 -0.9267514866 0.3192508751 0.000000000 0.000000000
1.385000000 0.000000000 0.000000000 -0.9243180722 0.3262292760 -0.9243180722 0.3262292760 0.000000000 0.000000000
1.388000000 0.000000000 0.000000000 -0.9218321116 0.3331891312 -0.9218321116 0.3331891312 0.000000000 0.000000000
1.391000000 0.000000000 0.000000000 -0.9192937461 0.3401300450 -0.9192937461 0.3401300450 0.000000000 0.000000000
1.394000000 0.000000000 0.000000000 -0.9167031200 0.3470516229 -0.9167031200 0.3470516229 0.000000000 0.000000000
1.397000000 0.000000000 0.000000000 -0.9140603805 0.3539534714 -0.9140603805 0.3539534714 0.000000000 0.000000000
1.400000000 0.000000000 0.000000000 -0.9113656779 0.3608351982 -0.9113656779 0.3608351982 0.000000000 0.000000000
1.403000000 0.000000000 0.000000000 -0.9086191655 0.3676964119 -0.9086191655 0.3676964119 0.000000000 0.000000000
1.406000000 0.000000000 0.000000000 -0.9058209992 0.3745367225 -0.9058209992 0.3745367225 0.000000000 0.000000000
1.409000000 0.000000000 0.000000000 -0.9029713383 0.3813557413 -0.9029713383 0.3813557413 0.000000000 0.000000000
1.412000000 0.000000000 0.000000000 -0.9000703446 0.3881530805 -0.9000703446 0.3881530805 0.000000000 0.000000000
1.415000000 0.000000000 0.000000000 -0.8971181832 0.3949283538 -0.8971181832 0.3949283538 0.000000000 0.000000000
1.418000000 0.000000000 0.000000000 -0.8941150218 0.4016811758 -0.8941150218 0.4016811758 0.000000000 0.000000000
1.421000000 0.000000000 0.000000000 -0.8910610311 0.4084111629 -0.8910610311 0.4084111629 0.000000000 0.000000000
1.424000000 0.000000000 0.000000000 -0.8879563849 0.4151179323 -0.8879563849 0.4151179323 0.000000000 0.000000000
1.427000000 0.000000000 0.000000000 -0.8848012595 0.4218011028 -0.8848012595 0.4218011028 0.000000000 0.000000000
1.430000000 0.000000000 0.000000000 -0.8815958344 0.4284602946 -0.8815958344 0.4284602946 0.000000000 0.000000000
1.433000000 0.000000000 0.000000000 -0.8783402917 0.4350951289 -0.8783402917 0.4350951289 0.000000000 0.000000000
1.436000000 0.000000000 0.000000000 -0.8750348165 0.4417052286 -0.8750348165 0.4417052286 0.000000000 0.000000000
1.439000000 0.000000000 0.000000000 -0.8716795969 0.4482902180 -0.8716795969 0.4482902180 0.000000000 0.000000000
1.442000000 0.000000000 0.000000000 -0.8682748234 0.4548497227 -0.8682748234 0.4548497227 0.000000000 0.000000000
1.445000000 0.000000000 0.000000000 -0.8648206896 0.4613833698 -0.8648206896 0.4613833698 0.000000000 0.000000000
1.448000000 0.000000000 0.000000000 -0.8613173920 0.4678907879 -0.8613173920 0.4678907879 0.000000000 0.000000000
1.451000000 0.000000000 0.000000000 -0.8577651296 0.4743716070 -0.8577651296 0.4743716070 0.000000000 0.000000000
1.454000000 0.000000000 0.000000000 -0.8541641045 0.4808254588 -0.8541641045 0.4808254588 0.000000000 0.000000000
1.457000000 0.000000000 0.000000000 -0.8505145212 0.4872519762 -0.8505145212 0.4872519762 0.000000000 0.000000000
1.460000000 0.000000000 0.000000000 -0.8468165874 0.4936507941 -0.8468165874 0.4936507941 0.000000000 0.000000000
1.463000000 0.000000000 0.000000000 -0.8430705131 0.5000215486 -0.8430705131 0.5000215486 0.000000000 0.000000000
1.466000000 0.000000000 0.000000000 -0.8392765115 0.5063638775 -0.8392765115 0.5063638775 0.000000000 0.000000000
1.469000000 0.000000000 0.000000000 -0.8354347981 0.5126774203 -0.8354347981 0.5126774203 0.000000000 0.000000000
1.472000000 0.000000000 0.000000000 -0.8315455914 0.5189618181 -0.8315455914 0.5189618181 0.000000000 0.000000000
1.475000000 0.000000000 0.000000000 -0.8276091124 0.5252167136 -0.8276091124 0.5252167136 0.000000000 0.000000000
1.478000000 0.000000000 0.000000000 -0.8236255850 0.5314417512 -0.8236255850 0.5314417512 0.000000000 0.000000000
1.481000000 0.000000000 0.000000000 -0.8195952355 0.5376365771 -0.8195952355 0.5376365771 0.000000000 0.000000000
1.484000000 0.000000000 0.000000000 -0.8155182932 0.5438008391 -0.8155182932 0.5438008391 0.000000000 0.000000000
1.487000000 0.000000000 0.000000000 -0.8113949898 0.5499341867 -0.8113949898 0.5499341867 0.000000000 0.000000000
1.490000000 0.000000000 0.000000000 -0.8072255596 0.5560362713 -0.8072255596 0.5560362713 0.000000000 0.000000000
1.493000000 0.000000000 0.000000000 -0.8030102398 0.5621067461 -0.8030102398 0.5621067461 0.000000000 0.000000000
1.496000000 0.000000000 0.000000000 -0.7987492699 0.5681452657 -0.7987492699 0.5681452657 0.000000000 0.000000000
1.499000000 0.000000000 0.000000000 -0.7944428922 0.5741514872 -0.7944428922 0.5741514872 0.000000000 0.000000000
1.502000000 0.000000000 0.000000000 -0.7900913515 0.5801250688 -0.7900913515 0.5801250688 0.000000000 0.000000000
1.505000000 0.000000000 0.000000000 -0.7856948951 0.5860656712 -0.7856948951 0.5860656712 0.000000000 0.000000000
1.508000000 0.000000000 0.000000000 -0.7812537731 0.5919729565 -0.7812537731 0.5919729565 0.000000000 0.000000000
1.511000000 0.000000000 0.000000000 -0.7767682378 0.5978465889 -0.7767682378 0.5978465889 0.000000000 0.000000000
1.514000000 0.000000000 0.000000000 -0.7722385444 0.6036862345 -0.7722385444 0.6036862345 0.000000000 0.000000000
1.517000000 0.000000000 0.000000000 -0.7676649501 0.6094915614 -0.7676649501 0.6094915614 0.000000000 0.000000000
1.520000000 0.000000000 0.000000000 -0.7630477152 0.6152622396 -0.7630477152 0.6152622396 0.000000000 0.000000000
1.523000000 0.000000000 0.000000000 -0.7583871021 0.6209979409 -0.7583871021 0.6209979409 0.000000000 0.000000000
1.526000000 0.000000000 0.000000000 -0.7536833756 0.6266983393 -0.7536833756 0.6266983393 0.000000000 0.000000000
1.529000000 0.000000000 0.000000000 -0.7489368033 0.6323631108 -0.7489368033 0.6323631108 0.000000000 0.000000000
1.532000000 0.000000000 0.000000000 -0.7441476549 0.6379919332 -0.7441476549 0.6379919332 0.000000000 0.000000000
1.535000000 0.000000000 0.000000000 -0.7393162027 0.6435844867 -0.7393162027 0.6435844867 0.000000000 0.000000000
1.538000000 0.000000000 0.000000000 -0.7344427214 0.6491404533 -0.7344427214 0.6491404533 0.000000000 0.000000000
1.541000000 0.000000000 0.000000000 -0.7295274881 0.6546595171 -0.7295274881 0.6546595171 0.000000000 0.000000000
1.544000000 0.000000000 0.000000000 -0.7245707820 0.6601413644 -0.7245707820 0.6601413644 0.000000000 0.000000000
1.547000000 0.000000000 0.000000000 -0.7195728851 0.6655856835 -0.7195728851 0.6655856835 0.000000000 0.000000000
1.550000000 0.000000000 0.000000000 -0.7145340815 0.6709921650 -0.7145340815 0.6709921650 0.000000000 0.000000000
1.553000000 0.000000000 0.000000000 -0.7094546575 0.6763605016 -0.7094546575 0.6763605016 0.000000000 0.000000000
1.556000000 0.000000000 0.000000000 -0.7043349020 0.6816903879 -0.7043349020 0.6816903879 0.000000000 0.000000000
1.559000000 0.000000000 0.000000000 -0.6991751061 0.6869815210 -0.6991751061 0.6869815210 0.000000000 0.000000000
1.562000000 0.000000000 0.000000000 -0.6939755629 0.6922336002 -0.6939755629 0.6922336002 0.000000000 0.000000000
1.565000000 0.000000000 0.000000000 -0.6887365682 0.6974463268 -0.6887365682 0.6974463268 0.000000000 0.000000000
1.568000000 0.000000000 0.000000000 -0.6834584197 0.7026194046 -0.6834584197 0.7026194046 0.000000000 0.000000000
1.571000000 0.000000000 0.000000000 -0.6781414176 0.7077525393 -0.6781414176 0.7077525393 0.000000000 0.000000000
1.574000000 0.000000000 0.000000000 -0.6727858640 0.7128454393 -0.6727858640 0.7128454393 0.000000000 0.000000000
1.577000000 0.000000000 0.000000000 -0.6673920634 0.7178978150 -0.6673920634 0.7178978150 0.000000000 0.000000000
1.580000000 0.000000000 0.000000000 -0.6619603226 0.7229093792 -0.6619603226 0.7229093792 0.000000000 0.000000000
1.583000000 0.000000000 0.000000000 -0.6564909501 0.7278798469 -0.6564909501 0.7278798469 0.000000000 0.000000000
1.586000000 0.000000000 0.000000000 -0.6509842571 0.7328089357 -0.6509842571 0.7328089357 0.000000000 0.000000000
1.589000000 0.000000000 0.000000000 -0.6454405564 0.7376963652 -0.6454405564 0.7376963652 0.000000000 0.000000000
1.592000000 0.000000000 0.000000000 -0.6398601633 0.7425418578 -0.6398601633 0.7425418578 0.000000000 0.000000000
1.595000000 0.000000000 0.000000000 -0.6342433951 0.7473451378 -0.6342433951 0.7473451378 0.000000000 0.000000000
1.598000000 0.000000000 0.000000000 -0.6285905709 0.7521059322 -0.6285905709 0.7521059322 0.000000000 0.000000000
1.601000000 0.000000000 0.000000000 -0.6229020123 0.7568239705 -0.6229020123 0.7568239705 0.000000000 0.000000000
1.604000000 0.000000000 0.000000000 -0.6171780425 0.7614989843 -0.6171780425 0.7614989843 0.000000000 0.000000000
1.607000000 0.000000000 0.000000000 -0.6114189869 0.7661307079 -0.6114189869 0.7661307079 0.000000000 0.000000000
1.610000000 0.000000000 0.000000000 -0.6056251730 0.7707188780 -0.6056251730 0.7707188780 0.000000000 0.000000000
1.613000000 0.000000000 0.000000000 -0.5997969302 0.7752632338 -0.5997969302 0.7752632338 0.000000000 0.000000000
1.616000000 0.000000000 0.000000000 -0.5939345897 0.7797635169 -0.5939345897 0.7797635169 0.000000000 0.000000000
1.619000000 0.000000000 0.000000000 -0.5880384848 0.7842194716 -0.5880384848 0.7842194716 0.000000000 0.000000000
1.622000000 0.000000000 0.000000000 -0.5821089507 0.7886308444 -0.5821089507 0.7886308444 0.000000000 0.000000000
1.625000000 0.000000000 0.000000000 -0.5761463245 0.7929973846 -0.5761463245 0.7929973846 0.000000000 0.000000000
1.628000000 0.000000000 0.000000000 -0.5701509451 0.7973188439 -0.5701509451 0.7973188439 0.000000000 0.000000000
1.631000000 0.000000000 0.000000000 -0.5641231535 0.8015949768 -0.5641231535 0.8015949768 0.000000000 0.000000000
1.634000000 0.000000000 0.000000000 -0.5580632922 0.8058255401 -0.5580632922 0.8058255401 0.000000000 0.000000000
1.637000000 0.000000000 0.000000000 -0.5519717058 0.8100102933 -0.5519717058 0.8100102933 0.000000000 0.000000000
1.640000000 0.000000000 0.000000000 -0.5458487405 0.8141489984 -0.5458487405 0.8141489984 0.000000000 0.000000000
1.643000000 0.000000000 0.000000000 -0.5396947444 0.8182414204 -0.5396947444 0.8182414204 0.000000000 0.000000000
1.646000000 0.000000000 0.000000000 -0.5335100675 0.8222873263 -0.5335100675 0.8222873263 0.000000000 0.000000000
1.649000000 0.000000000 0.000000000 -0.5272950612 0.8262864864 -0.5272950612 0.8262864864 0.000000000 0.000000000
1.652000000 0.000000000 0.000000000 -0.5210500788 0.8302386732 -0.5210500788 0.8302386732 0.000000000 0.000000000
1.655000000 0.000000000 0.000000000 -0.5147754755 0.8341436620 -0.5147754755 0.8341436620 0.000000000 0.000000000
1.658000000 0.000000000 0.000000000 -0.5084716079 0.8380012309 -0.5084716079 0.8380012309 0.000000000 0.000000000
1.661000000 0.000000000 0.000000000 -0.5021388344 0.8418111606 -0.5021388344 0.8418111606 0.000000000 0.000000000
1.664000000 0.000000000 0.000000000 -0.4957775150 0.8455732344 -0.4957775150 0.8455732344 0.000000000 0.000000000
1.667000000 0.000000000 0.000000000 -0.4893880113 0.8492872386 -0.4893880113 0.8492872386 0.000000000 0.000000000
1.670000000 0.000000000 0.000000000 -0.4829706865 0.8529529619 -0.4829706865 0.8529529619 0.000000000 0.000000000
1.673000000 0.000000000 0.000000000 -0.4765259055 0.8565701959 -0.4765259055 0.8565701959 0.000000000 0.000000000
1.676000000 0.000000000 0.000000000 -0.4700540346 0.8601387351 -0.4700540346 0.8601387351 0.000000000 0.000000000
1.679000000 0.000000000 0.000000000 -0.4635554418 0.8636583766 -0.4635554418 0.8636583766 0.000000000 0.000000000
1.682000000 0.000000000 0.000000000 -0.4570304965 0.8671289203 -0.4570304965 0.8671289203 0.000000000 0.000000000
1.685000000 0.000000000 0.000000000 -0.4504795697 0.8705501688 -0.4504795697 0.8705501688 0.000000000 0.000000000
1.688000000 0.000000000 0.000000000 -0.4439030336 0.8739219278 -0.4439030336 0.8739219278 0.000000000 0.000000000
1.691000000 0.000000000 0.000000000 -0.4373012623 0.8772440055 -0.4373012623 0.8772440055 0.000000000 0.000000000
1.694000000 0.000000000 0.000000000 -0.4306746310 0.8805162130 -0.4306746310 0.8805162130 0.000000000 0.000000000
1.697000000 0.000000000 0.000000000 -0.4240235165 0.8837383644 -0.4240235165 0.8837383644 0.000000000 0.000000000
1.700000000 0.000000000 0.000000000 -0.4173482967 0.8869102764 -0.4173482967 0.8869102764 0.000000000 0.000000000
1.703000000 0.000000000 0.000000000 -0.4106493513 0.8900317688 -0.4106493513 0.8900317688 0.000000000 0.000000000
1.706000000 0.000000000 0.000000000 -0.4039270610 0.8931026641 -0.4039270610 0.8931026641 0.000000000 0.000000000
1.709000000 0.000000000 0.000000000 -0.3971818080 0.8961227876 -0.3971818080 0.8961227876 0.000000000 0.000000000
1.712000000 0.000000000 0.000000000 -0.3904139758 0.8990919679 -0.3904139758 0.8990919679 0.000000000 0.000000000
1.715000000 0.000000000 0.000000000 -0.3836239490 0.9020100359 -0.3836239490 0.9020100359 0.000000000 0.000000000
1.718000000 0.000000000 0.000000000 -0.3768121137 0.9048768259 -0.3768121137 0.9048768259 0.000000000 0.000000000
1.721000000 0.000000000 0.000000000 -0.3699788572 0.9076921749 -0.3699788572 0.9076921749 0.000000000 0.000000000
1.724000000 0.000000000 0.000000000 -0.3631245679 0.9104559228 -0.3631245679 0.9104559228 0.000000000 0.000000000
1.727000000 0.000000000 0.000000000 -0.3562496354 0.9131679125 -0.3562496354 0.9131679125 0.000000000 0.000000000
1.730000000 0.000000000 0.000000000 -0.3493544507 0.9158279898 -0.3493544507 0.9158279898 0.000000000 0.000000000
1.733000000 0.000000000 0.000000000 -0.3424394056 0.9184360036 -0.3424394056 0.9184360036 0.000000000 0.000000000
1.736000000 0.000000000 0.000000000 -0.3355048932 0.9209918055 -0.3355048932 0.9209918055 0.000000000 0.000000000
1.739000000 0.000000000 0.000000000 -0.3285513079 0.9234952502 -0.3285513079 0.9234952502 0.000000000 0.000000000
1.742000000 0.000000000 0.000000000 -0.3215790449 0.9259461955 -0.3215790449 0.9259461955 0.000000000 0.000000000
1.745000000 0.000000000 0.000000000 -0.3145885005 0.9283445020 -0.3145885005 0.9283445020 0.000000000 0.000000000
1.748000000 0.000000000 0.000000000 -0.3075800723 0.9306900334 -0.3075800723 0.9306900334 0.000000000 0.000000000
1.751000000 0.000000000 0.000000000 -0.3005541584 0.9329826563 -0.3005541584 0.9329826563 0.000000000 0.000000000
1.754000000 0.000000000 0.000000000 -0.2935111585 0.9352222404 -0.2935111585 0.9352222404 0.000000000 0.000000000
1.757000000 0.000000000 0.000000000 -0.2864514729 0.9374086584 -0.2864514729 0.9374086584 0.000000000 0.000000000
1.760000000 0.000000000 0.000000000 -0.2793755029 0.9395417859 -0.2793755029 0.9395417859 0.000000000 0.000000000
1.763000000 0.000000000 0.000000000 -0.2722836508 0.9416215018 -0.2722836508 0.9416215018 0.000000000 0.000000000
1.766000000 0.000000000 0.000000000 -0.2651763198 0.9436476877 -0.2651763198 0.9436476877 0.000000000 0.000000000
1.769000000 0.000000000 0.000000000 -0.2580539138 0.9456202286 -0.2580539138 0.9456202286 0.000000000 0.000000000
1.772000000 0.000000000 0.000000000 -0.2509168378 0.9475390122 -0.2509168378 0.9475390122 0.000000000 0.000000000
1.775000000 0.000000000 0.000000000 -0.2437654975 0.9494039295 -0.2437654975 0.9494039295 0.000000000 0.000000000
1.778000000 0.000000000 0.000000000 -0.2366002994 0.9512148745 -0.2366002994 0.9512148745 0.000000000 0.000000000
1.781000000 0.000000000 0.000000000 -0.2294216510 0.9529717442 -0.2294216510 0.9529717442 0.000000000 0.000000000
1.784000000 0.000000000 0.000000000 -0.2222299602 0.9546744387 -0.2222299602 0.9546744387 0.000000000 0.000000000
1.787000000 0.000000000 0.000000000 -0.2150256360 0.9563228613 -0.2150256360 0.9563228613 0.000000000 0.000000000
1.790000000 0.000000000 0.000000000 -0.2078090879 0.9579169182 -0.2078090879 0.9579169182 0.000000000 0.000000000
1.793000000 0.000000000 0.000000000 -0.2005807261 0.9594565188 -0.2005807261 0.9594565188 0.000000000 0.000000000
1.796000000 0.000000000 0.000000000 -0.1933409615 0.9609415756 -0.1933409615 0.9609415756 0.000000000 0.000000000
1.799000000 0.000000000 0.000000000 -0.1860902058 0.9623720042 -0.1860902058 0.9623720042 0.000000000 0.000000000
1.802000000 0.000000000 0.000000000 -0.1788288711 0.9637477232 -0.1788288711 0.9637477232 0.000000000 0.000000000
1.805000000 0.000000000 0.000000000 -0.1715573702 0.9650686545 -0.1715573702 0.9650686545 0.000000000 0.000000000
1.808000000 0.000000000 0.000000000 -0.1642761165 0.9663347229 -0.1642761165 0.9663347229 0.000000000 0.000000000
1.811000000 0.000000000 0.000000000 -0.1569855240 0.9675458565 -0.1569855240 0.9675458565 0.000000000 0.000000000
1.814000000 0.000000000 0.000000000 -0.1496860070 0.9687019864 -0.1496860070 0.9687019864 0.000000000 0.000000000
1.817000000 0.000000000 0.000000000 -0.1423779805 0.9698030469 -0.1423779805 0.9698030469 0.000000000 0.000000000
1.820000000 0.000000000 0.000000000 -0.1350618601 0.9708489754 -0.1350618601 0.9708489754 0.000000000 0.000000000
1.823000000 0.000000000 0.000000000 -0.1277380616 0.9718397125 -0.1277380616 0.9718397125 0.000000000 0.000000000
1.826000000 0.000000000 0.000000000 -0.1204070014 0.9727752018 -0.1204070014 0.9727752018 0.000000000 0.000000000
1.829000000 0.000000000 0.000000000 -0.1130690962 0.9736553901 -0.1130690962 0.9736553901 0.000000000 0.000000000
1.832000000 0.000000000 0.000000000 -0.1057247631 0.9744802274 -0.1057247631 0.9744802274 0.000000000 0.000000000
1.835000000 0.000000000 0.000000000 -0.09837441975 0.9752496669 -0.09837441975 0.9752496669 0.000000000 0.000000000
1.838000000 0.000000000 0.000000000 -0.09101848394 0.9759636647 -0.09101848394 0.9759636647 0.000000000 0.000000000
1.841000000 0.000000000 0.000000000 -0.08365737385 0.9766221802 -0.08365737385 0.9766221802 0.000000000 0.000000000
1.844000000 0.000000000 0.000000000 -0.07629150795 0.9772251762 -0.07629150795 0.9772251762 0.000000000 0.000000000
1.847000000 0.000000000 0.000000000 -0.06892130499 0.9777726182 -0.06892130499 0.9777726182 0.000000000 0.000000000
1.850000000 0.000000000 0.000000000 -0.06154718394 0.9782644751 -0.06154718394 0.9782644751 0.000000000 0.000000000
1.853000000 0.000000000 0.000000000 -0.05416956402 0.9787007191 -0.05416956402 0.9787007191 0.000000000 0.000000000
1.856000000 0.000000000 0.000000000 -0.04678886462 0.9790813252 -0.04678886462 0.9790813252 0.000000000 0.000000000
1.859000000 0.000000000 0.000000000 -0.03940550535 0.9794062718 -0.03940550535 0.9794062718 0.000000000 0.000000000
1.862000000 0.000000000 0.000000000 -0.03201990593 0.9796755406 -0.03201990593 0.9796755406 0.000000000 0.000000000
1.865000000 0.000000000 0.000000000 -0.02463248621 0.9798891161 -0.02463248621 0.9798891161 0.000000000 0.000000000
1.868000000 0.000000000 0.000000000 -0.01724366618 0.9800469862 -0.01724366618 0.9800469862 0.000000000 0.000000000
1.871000000 0.000000000 0.000000000 -0.009853865862 0.9801491420 -0.009853865862 0.9801491420 0.000000000 0.000000000
1.874000000 0.000000000 0.000000000 -0.002463505367 0.9801955776 -0.002463505367 0.9801955776 0.000000000 0.000000000
1.877000000 0.000000000 0.000000000 0.004926995174 0.9801862904 0.004926995174 0.9801862904 0.000000000 0.000000000
1.880000000 0.000000000 0.000000000 0.01231721562 0.9801212809 0.01231721562 0.9801212809 0.000000000 0.000000000
1.883000000 0.000000000 0.000000000 0.01970673585 0.9800005529 0.01970673585 0.9800005529 0.000000000 0.000000000
1.886000000 0.000000000 0.000000000 0.02709513578 0.9798241132 0.02709513578 0.9798241132 0.000000000 0.000000000
1.889000000 0.000000000 0.000000000 0.03448199539 0.9795919718 0.03448199539 0.9795919718 0.000000000 0.000000000
1.892000000 0.000000000 0.000000000 0.04186689474 0.9793041419 0.04186689474 0.9793041419 0.000000000 0.000000000
1.895000000 0.000000000 0.000000000 0.04924941402 0.9789606398 0.04924941402 0.9789606398 0.000000000 0.000000000
1.898000000 0.000000000 0.000000000 0.05662913353 0.9785614852 0.05662913353 0.9785614852 0.000000000 0.000000000
1.901000000 0.000000000 0.000000000 0.06400563376 0.9781067007 0.06400563376 0.9781067007 0.000000000 0.000000000
1.904000000 0.000000000 0.000000000 0.07137849535 0.9775963122 0.07137849535 0.9775963122 0.000000000 0.000000000
1.907000000 0.000000000 0.000000000 0.07874729917 0.9770303486 0.07874729917 0.9770303486 0.000000000 0.000000000
1.910000000 0.000000000 0.000000000 0.08611162631 0.9764088421 0.08611162631 0.9764088421 0.000000000 0.000000000
1.913000000 0.000000000 0.000000000 0.09347105812 0.9757318281 0.09347105812 0.9757318281 0.000000000 0.000000000
1.916000000 0.000000000 0.000000000 0.1008251762 0.9749993451 0.1008251762 0.9749993451 0.000000000 0.000000000
1.919000000 0.000000000 0.000000000 0.1081735626 0.9742114347 0.1081735626 0.9742114347 0.000000000 0.000000000
1.922000000 0.000000000 0.000000000 0.1155157994 0.9733681417 0.1155157994 0.9733681417 0.000000000 0.000000000
1.925000000 0.000000000 0.000000000 0.1228514693 0.9724695140 0.1228514693 0.9724695140 0.000000000 0.000000000
1.928000000 0.000000000 0.000000000 0.1301801552 0.9715156027 0.1301801552 0.9715156027 0.000000000 0.000000000
1.931000000 0.000000000 0.000000000 0.1375014406 0.9705064621 0.1375014406 0.9705064621 0.000000000 0.000000000
1.934000000 0.000000000 0.000000000 0.1448149092 0.9694421495 0.1448149092 0.9694421495 0.000000000 0.000000000
1.937000000 0.000000000 0.000000000 0.1521201453 0.9683227254 0.1521201453 0.9683227254 0.000000000 0.000000000
1.940000000 0.000000000 0.000000000 0.1594167336 0.9671482535 0.1594167336 0.9671482535 0.000000000 0.000000000
1.943000000 0.000000000 0.000000000 0.1667042592 0.9659188005 0.1667042592 0.9659188005 0.000000000 0.000000000
1.946000000 0.000000000 0.000000000 0.1739823079 0.9646344363 0.1739823079 0.9646344363 0.000000000 0.000000000
1.949000000 0.000000000 0.000000000 0.1812504660 0.9632952339 0.1812504660 0.9632952339 0.000000000 0.000000000
1.952000000 0.000000000 0.000000000 0.1885083202 0.9619012696 0.1885083202 0.9619012696 0.000000000 0.000000000
1.955000000 0.000000000 0.000000000 0.1957554579 0.9604526224 0.1957554579 0.9604526224 0.000000000 0.000000000
1.958000000 0.000000000 0.000000000 0.2029914673 0.9589493748 0.2029914673 0.9589493748 0.000000000 0.000000000
1.961000000 0.000000000 0.000000000 0.2102159368 0.9573916122 0.2102159368 0.9573916122 0.000000000 0.000000000
1.964000000 0.000000000 0.000000000 0.2174284559 0.9557794232 0.2174284559 0.9557794232 0.000000000 0.000000000
1.967000000 0.000000000 0.000000000 0.2246286144 0.9541128994 0.2246286144 0.9541128994 0.000000000 0.000000000
1.970000000 0.000000000 0.000000000 0.2318160031 0.9523921355 0.2318160031 0.9523921355 0.000000000 0.000000000
1.973000000 0.000000000 0.000000000 0.2389902134 0.9506172295 0.2389902134 0.9506172295 0.000000000 0.000000000
1.976000000 0.000000000 0.000000000 0.2461508374 0.9487882822 0.2461508374 0.9487882822 0.000000000 0.000000000
1.979000000 0.000000000 0.000000000 0.2532974681 0.9469053975 0.2532974681 0.9469053975 0.000000000 0.000000000
1.982000000 0.000000000 0.000000000 0.2604296991 0.9449686825 0.2604296991 0.9449686825 0.000000000 0.000000000
1.985000000 0.000000000 0.000000000 0.2675471251 0.9429782474 0.2675471251 0.9429782474 0.000000000 0.000000000
1.988000000 0.000000000 0.000000000 0.2746493413 0.9409342052 0.2746493413 0.9409342052 0.000000000 0.000000000
1.991000000 0.000000000 0.000000000 0.2817359442 0.9388366721 0.2817359442 0.9388366721 0.000000000 0.000000000
1.994000000 0.000000000 0.000000000 0.2888065307 0.9366857675 0.2888065307 0.9366857675 0.000000000 0.000000000
1.997000000 0.000000000 0.000000000 0.2958606989 0.9344816135 0.2958606989 0.9344816135 0.000000000 0.000000000
2.000000000 0.000000000 0.000000000 0.3028980479 0.9322243355 0.3028980479 0.9322243355 0.000000000 0.000000000
2.003000000 0.000000000 0.000000000 0.3099181775 0.9299140618 0.3099181775 0.9299140618 0.000000000 0.000000000
2.006000000 0.000000000 0.000000000 0.3169206887 0.9275509238 0.3169206887 0.9275509238 0.000000000 0.000000000
2.009000000 0.000000000 0.000000000 0.3239051834 0.9251350557 0.3239051834 0.9251350557 0.000000000 0.000000000
2.012000000 0.000000000 0.000000000 0.3308712645 0.9226665950 0.3308712645 0.9226665950 0.000000000 0.000000000
2.015000000 0.000000000 0.000000000 0.3378185361 0.9201456819 0.3378185361 0.9201456819 0.000000000 0.000000000
2.018000000 0.000000000 0.000000000 0.3447466031 0.9175724597 0.3447466031 0.9175724597 0.000000000 0.000000000
2.021000000 0.000000000 0.000000000 0.3516550717 0.9149470748 0.3516550717 0.9149470748 0.000000000 0.000000000
2.024000000 0.000000000 0.000000000 0.3585435492 0.9122696764 0.3585435492 0.9122696764 0.000000000 0.000000000
2.027000000 0.000000000 0.000000000 0.3654116440 0.9095404167 0.3654116440 0.9095404167 0.000000000 0.000000000
2.030000000 0.000000000 0.000000000 0.3722589656 0.9067594508 0.3722589656 0.9067594508 0.000000000 0.000000000
2.033000000 0.000000000 0.000000000 0.3790851248 0.9039269369 0.3790851248 0.9039269369 0.000000000 0.000000000
2.036000000 0.000000000 0.000000000 0.3858897335 0.9010430360 0.3858897335 0.9010430360 0.000000000 0.000000000
2.039000000 0.000000000 0.000000000 0.3926724049 0.8981079120 0.3926724049 0.8981079120 0.000000000 0.000000000
2.042000000 0.000000000 0.000000000 0.3994327534 0.8951217317 0.3994327534 0.8951217317 0.000000000 0.000000000
2.045000000 0.000000000 0.000000000 0.4061703947 0.8920846650 0.4061703947 0.8920846650 0.000000000 0.000000000
2.048000000 0.000000000 0.000000000 0.4128849458 0.8889968845 0.4128849458 0.8889968845 0.000000000 0.000000000
2.051000000 0.000000000 0.000000000 0.4195760249 0.8858585657 0.4195760249 0.8858585657 0.000000000 0.000000000
2.054000000 0.000000000 0.000000000 0.4262432517 0.8826698871 0.4262432517 0.8826698871 0.000000000 0.000000000
2.057000000 0.000000000 0.000000000 0.4328862471 0.8794310298 0.4328862471 0.8794310298 0.000000000 0.000000000
2.060000000 0.000000000 0.000000000 0.4395046335 0.8761421781 0.4395046335 0.8761421781 0.000000000 0.000000000
2.063000000 0.000000000 0.000000000 0.4460980347 0.8728035189 0.4460980347 0.8728035189 0.000000000 0.000000000
2.066000000 0.000000000 0.000000000 0.4526660758 0.8694152420 0.4526660758 0.8694152420 0.000000000 0.000000000
2.069000000 0.000000000 0.000000000 0.4592083835 0.8659775399 0.4592083835 0.8659775399 0.000000000 0.000000000
2.072000000 0.000000000 0.000000000 0.4657245858 0.8624906083 0.4657245858 0.8624906083 0.000000000 0.000000000
2.075000000 0.000000000 0.000000000 0.4722143122 0.8589546452 0.4722143122 0.8589546452 0.000000000 0.000000000
2.078000000 0.000000000 0.000000000 0.4786771939 0.8553698517 0.4786771939 0.8553698517 0.000000000 0.000000000
2.081000000 0.000000000 0.000000000 0.4851128635 0.8517364316 0.4851128635 0.8517364316 0.000000000 0.000000000
2.084000000 0.000000000 0.000000000 0.4915209550 0.8480545914 0.4915209550 0.8480545914 0.000000000 0.000000000
2.087000000 0.000000000 0.000000000 0.4979011043 0.8443245404 0.4979011043 0.8443245404 0.000000000 0.000000000
2.090000000 0.000000000 0.000000000 0.5042529485 0.8405464907 0.5042529485 0.8405464907 0.000000000 0.000000000
2.093000000 0.000000000 0.000000000 0.5105761266 0.8367206571 0.5105761266 0.8367206571 0.000000000 0.000000000
2.096000000 0.000000000 0.000000000 0.5168702792 0.8328472571 0.5168702792 0.8328472571 0.000000000 0.000000000
2.099000000 0.000000000 0.000000000 0.5231350484 0.8289265108 0.5231350484 0.8289265108 0.000000000 0.000000000
2.102000000 0.000000000 0.000000000 0.5293700781 0.8249586411 0.5293700781 0.8249586411 0.000000000 0.000000000
2.105000000 0.000000000 0.000000000 0.5355750138 0.8209438737 0.5355750138 0.8209438737 0.000000000 0.000000000
2.108000000 0.000000000 0.000000000 0.5417495027 0.8168824367 0.5417495027 0.8168824367 0.000000000 0.000000000
2.111000000 0.000000000 0.000000000 0.5478931940 0.8127745611 0.5478931940 0.8127745611 0.000000000 0.000000000
2.114000000 0.000000000 0.000000000 0.5540057383 0.8086204803 0.5540057383 0.8086204803 0.000000000 0.000000000
2.117000000 0.000000000 0.000000000 0.5600867880 0.8044204305 0.5600867880 0.8044204305 0.000000000 0.000000000
2.120000000 0.000000000 0.000000000 0.5661359976 0.8001746505 0.5661359976 0.8001746505 0.000000000 0.000000000
2.123000000 0.000000000 0.000000000 0.5721530232 0.7958833817 0.5721530232 0.7958833817 0.000000000 0.000000000
2.126000000 0.000000000 0.000000000 0.5781375226 0.7915468679 0.5781375226 0.7915468679 0.000000000 0.000000000
2.129000000 0.000000000 0.000000000 0.5840891556 0.7871653558 0.5840891556 0.7871653558 0.000000000 0.000000000
2.132000000 0.000000000 0.000000000 0.5900075840 0.7827390944 0.5900075840 0.7827390944 0.000000000 0.000000000
2.135000000 0.000000000 0.000000000 0.5958924713 0.7782683354 0.5958924713 0.7782683354 0.000000000 0.000000000
2.138000000 0.000000000 0.000000000 0.6017434828 0.7737533328 0.6017434828 0.7737533328 0.000000000 0.000000000
2.141000000 0.000000000 0.000000000 0.6075602861 0.7691943434 0.6075602861 0.7691943434 0.000000000 0.000000000
2.144000000 0.000000000 0.000000000 0.6133425504 0.7645916263 0.6133425504 0.7645916263 0.000000000 0.000000000
2.147000000 0.000000000 0.000000000 0.6190899469 0.7599454433 0.6190899469 0.7599454433 0.000000000 0.000000000
2.150000000 0.000000000 0.000000000 0.6248021491 0.7552560583 0.6248021491 0.7552560583 0.000000000 0.000000000
2.153000000 0.000000000 0.000000000 0.6304788321 0.7505237381 0.6304788321 0.7505237381 0.000000000 0.000000000
2.156000000 0.000000000 0.000000000 0.6361196732 0.7457487516 0.6361196732 0.7457487516 0.000000000 0.000000000
2.159000000 0.000000000 0.000000000 0.6417243518 0.7409313703 0.6417243518 0.7409313703 0.000000000 0.000000000
2.162000000 0.000000000 0.000000000 0.6472925492 0.7360718681 0.6472925492 0.7360718681 0.000000000 0.000000000
2.165000000 0.000000000 0.000000000 0.6528239489 0.7311705211 0.6528239489 0.7311705211 0.000000000 0.000000000
2.168000000 0.000000000 0.000000000 0.6583182364 0.7262276081 0.6583182364 0.7262276081 0.000000000 0.000000000
2.171000000 0.000000000 0.000000000 0.6637750994 0.7212434100 0.6637750994 0.7212434100 0.000000000 0.000000000
2.174000000 0.000000000 0.000000000 0.6691942277 0.7162182103 0.6691942277 0.7162182103 0.000000000 0.000000000
2.177000000 0.000000000 0.000000000 0.6745753133 0.7111522944 0.6745753133 0.7111522944 0.000000000 0.000000000
2.180000000 0.000000000 0.000000000 0.6799180501 0.7060459506 0.6799180501 0.7060459506 0.000000000 0.000000000
2.183000000 0.000000000 0.000000000 0.6852221345 0.7008994689 0.6852221345 0.7008994689 0.000000000 0.000000000
2.186000000 0.000000000 0.000000000 0.6904872649 0.6957131421 0.6904872649 0.6957131421 0.000000000 0.000000000
2.189000000 0.000000000 0.000000000 0.6957131421 0.6904872649 0.6957131421 0.6904872649 0.000000000 0.000000000
2.192000000 0.000000000 0.000000000 0.7008994689 0.6852221345 0.7008994689 0.6852221345 0.000000000 0.000000000
2.195000000 0.000000000 0.000000000 0.7060459506 0.6799180501 0.7060459506 0.6799180501 0.000000000 0.000000000
2.198000000 0.000000000 0.000000000 0.7111522944 0.6745753133 0.7111522944 0.6745753133 0.000000000 0.000000000
2.201000000 0.000000000 0.000000000 0.7162182103 0.6691942277 0.7162182103 0.6691942277 0.000000000 0.000000000
2.204000000 0.000000000 0.000000000 0.7212434100 0.6637750994 0.7212434100 0.6637750994 0.000000000 0.000000000
2.207000000 0.000000000 0.000000000 0.7262276081 0.6583182364 0.7262276081 0.6583182364 0.000000000 0.000000000
2.210000000 0.000000000 0.000000000 0.7311705211 0.6528239489 0.7311705211 0.6528239489 0.000000000 0.000000000
2.213000000 0.000000000 0.000000000 0.7360718681 0.6472925492 0.7360718681 0.6472925492 0.000000000 0.000000000
2.216000000 0.000000000 0.000000000 0.7409313703 0.6417243518 0.7409313703 0.6417243518 0.000000000 0.000000000
2.219000000 0.000000000 0.000000000 0.7457487516 0.6361196732 0.7457487516 0.6361196732 0.000000000 0.000000000
2.222000000 0.000000000 0.000000000 0.7505237381 0.6304788321 0.7505237381 0.6304788321 0.000000000 0.000000000
2.225000000 0.000000000 0.000000000 0.7552560583 0.6248021491 0.7552560583 0.6248021491 0.000000000 0.000000000
2.228000000 0.000000000 0.000000000 0.7599454433 0.6190899469 0.7599454433 0.6190899469 0.000000000 0.000000000
2.231000000 0.000000000 0.000000000 0.7645916263 0.6133425504 0.7645916263 0.6133425504 0.000000000 0.000000000
2.234000000 0.000000000 0.000000000 0.7691943434 0.6075602861 0.7691943434 0.6075602861 0.000000000 0.000000000
2.237000000 0.000000000 0.000000000 0.7737533328 0.6017434828 0.7737533328 0.6017434828 0.000000000 0.000000000
2.240000000 0.000000000 0.000000000 0.7782683354 0.5958924713 0.7782683354 0.5958924713 0.000000000 0.000000000
2.243000000 0.000000000 0.000000000 0.7827390944 0.5900075840 0.7827390944 0.5900075840 0.000000000 0.000000000
2.246000000 0.000000000 0.000000000 0.7871653558 0.5840891556 0.7871653558 0.5840891556 0.000000000 0.000000000
2.249000000 0.000000000 0.000000000 0.7915468679 0.5781375226 0.7915468679 0.5781375226 0.000000000 0.000000000
2.252000000 0.000000000 0.000000000 0.7958833817 0.5721530232 0.7958833817 0.5721530232 0.000000000 0.000000000
2.255000000 0.000000000 0.000000000 0.8001746505 0.5661359976 0.8001746505 0.5661359976 0.000000000 0.000000000
2.258000000 0.000000000 0.000000000 0.8044204305 0.5600867880 0.8044204305 0.5600867880 0.000000000 0.000000000
2.261000000 0.000000000 0.000000000 0.8086204803 0.5540057383 0.8086204803 0.5540057383 0.000000000 0.000000000
2.264000000 0.000000000 0.000000000 0.8127745611 0.5478931940 0.8127745611 0.5478931940 0.000000000 0.000000000
2.267000000 0.000000000 0.000000000 0.8168824367 0.5417495027 0.8168824367 0.5417495027 0.000000000 0.000000000
2.270000000 0.000000000 0.000000000 0.8209438737 0.5355750138 0.8209438737 0.5355750138 0.000000000 0.000000000
2.273000000 0.000000000 0.000000000 0.8249586411 0.5293700781 0.8249586411 0.5293700781 0.000000000 0.000000000
2.276000000 0.000000000 0.000000000 0.8289265108 0.5231350484 0.8289265108 0.5231350484 0.000000000 0.000000000
2.279000000 0.000000000 0.000000000 0.8328472571 0.5168702792 0.8328472571 0.5168702792 0.000000000 0.000000000
2.282000000 0.000000000 0.000000000 0.8367206571 0.5105761266 0.8367206571 0.5105761266 0.000000000 0.000000000
2.285000000 0.000000000 0.000000000 0.8405464907 0.5042529485 0.8405464907 0.5042529485 0.000000000 0.000000000
2.288000000 0.000000000 0.000000000 0.8443245404 0.4979011043 0.8443245404 0.4979011043 0.000000000 0.000000000
2.291000000 0.000000000 0.000000000 0.8480545914 0.4915209550 0.8480545914 0.4915209550 0.000000000 0.000000000
2.294000000 0.000000000 0.000000000 0.8517364316 0.4851128635 0.8517364316 0.4851128635 0.000000000 0.000000000
2.297000000 0.000000000 0.000000000 0.8553698517 0.4786771939 0.8553698517 0.4786771939 0.000000000 0.000000000
2.300000000 0.000000000 0.000000000 0.8589546452 0.4722143122 0.8589546452 0.4722143122 0.000000000 0.000000000
2.303000000 0.000000000 0.000000000 0.8624906083 0.4657245858 0.8624906083 0.4657245858 0.000000000 0.000000000
2.306000000 0.000000000 0.000000000 0.8659775399 0.4592083835 0.8659775399 0.4592083835 0.000000000 0.000000000
2.309000000 0.000000000 0.000000000 0.8694152420 0.4526660758 0.8694152420 0.4526660758 0.000000000 0.000000000
2.312000000 0.000000000 0.000000000 0.8728035189 0.4460980347 0.8728035189 0.4460980347 0.000000000 0.000000000
2.315000000 0.000000000 0.000000000 0.8761421781 0.4395046335 0.8761421781 0.4395046335 0.000000000 0.000000000
2.318000000 0.000000000 0.000000000 0.8794310298 0.4328862471 0.8794310298 0.4328862471 0.000000000 0.000000000
2.321000000 0.000000000 0.000000000 0.8826698871 0.4262432517 0.8826698871 0.4262432517 0.000000000 0.000000000
2.324000000 0.000000000 0.000000000 0.8858585657 0.4195760249 0.8858585657 0.4195760249 0.000000000 0.000000000
2.327000000 0.000000000 0.000000000 0.8889968845 0.4128849458 0.8889968845 0.4128849458 0.000000000 0.000000000
2.330000000 0.000000000 0.000000000 0.8920846650 0.4061703947 0.8920846650 0.4061703947 0.000000000 0.000000000
2.333000000 0.000000000 0.000000000 0.8951217317 0.3994327534 0.8951217317 0.3994327534 0.000000000 0.000000000
2.336000000 0.000000000 0.000000000 0.8981079120 0.3926724049 0.8981079120 0.3926724049 0.000000000 0.000000000
2.339000000 0.000000000 0.000000000 0.9010430360 0.3858897335 0.9010430360 0.3858897335 0.000000000 0.000000000
2.342000000 0.000000000 0.000000000 0.9039269369 0.3790851248 0.9039269369 0.3790851248 0.000000000 0.000000000
2.345000000 0.000000000 0.000000000 0.9067594508 0.3722589656 0.9067594508 0.3722589656 0.000000000 0.000000000
2.348000000 0.000000000 0.000000000 0.9095404167 0.3654116440 0.9095404167 0.3654116440 0.000000000 0.000000000
2.351000000 0.000000000 0.000000000 0.9122696764 0.3585435492 0.9122696764 0.3585435492 0.000000000 0.000000000
2.354000000 0.000000000 0.000000000 0.9149470748 0.3516550717 0.9149470748 0.3516550717 0.000000000 0.000000000
2.357000000 0.000000000 0.000000000 0.9175724597 0.3447466031 0.9175724597 0.3447466031 0.000000000 0.000000000
2.360000000 0.000000000 0.000000000 0.9201456819 0.3378185361 0.9201456819 0.3378185361 0.000000000 0.000000000
2.363000000 0.000000000 0.000000000 0.9226665950 0.3308712645 0.9226665950 0.3308712645 0.000000000 0.000000000
2.366000000 0.000000000 0.000000000 0.9251350557 0.3239051834 0.9251350557 0.3239051834 0.000000000 0.000000000
2.369000000 0.000000000 0.000000000 0.9275509238 0.3169206887 0.9275509238 0.3169206887 0.000000000 0.000000000
2.372000000 0.000000000 0.000000000 0.9299140618 0.3099181775 0.9299140618 0.3099181775 0.000000000 0.000000000
2.375000000 0.000000000 0.000000000 0.9322243355 0.3028980479 0.9322243355 0.3028980479 0.000000000 0.000000000
2.378000000 0.000000000 0.000000000 0.9344816135 0.2958606989 0.9344816135 0.2958606989 0.000000000 0.000000000
2.381000000 0.000000000 0.000000000 0.9366857675 0.2888065307 0.9366857675 0.2888065307 0.000000000 0.000000000
2.384000000 0.000000000 0.000000000 0.9388366721 0.2817359442 0.9388366721 0.2817359442 0.000000000 0.000000000
2.387000000 0.000000000 0.000000000 0.9409342052 0.2746493413 0.9409342052 0.2746493413 0.000000000 0.000000000
2.390000000 0.000000000 0.000000000 0.9429782474 0.2675471251 0.9429782474 0.2675471251 0.000000000 0.000000000
2.393000000 0.000000000 0.000000000 0.9449686825 0.2604296991 0.9449686825 0.2604296991 0.000000000 0.000000000
2.396000000 0.000000000 0.000000000 0.9469053975 0.2532974681 0.9469053975 0.2532974681 0.000000000 0.000000000
2.399000000 0.000000000 0.000000000 0.9487882822 0.2461508374 0.9487882822 0.2461508374 0.000000000 0.000000000
2.402000000 0.000000000 0.000000000 0.9506172295 0.2389902134 0.9506172295 0.2389902134 0.000000000 0.000000000
2.405000000 0.000000000 0.000000000 0.9523921355 0.2318160031 0.9523921355 0.2318160031 0.000000000 0.000000000
2.408000000 0.000000000 0.000000000 0.9541128994 0.2246286144 0.9541128994 0.2246286144 0.000000000 0.000000000
2.411000000 0.000000000 0.000000000 0.9557794232 0.2174284559 0.9557794232 0.2174284559 0.000000000 0.000000000
2.414000000 0.000000000 0.000000000 0.9573916122 0.2102159368 0.9573916122 0.2102159368 0.000000000 0.000000000
2.417000000 0.000000000 0.000000000 0.9589493748 0.2029914673 0.9589493748 0.2029914673 0.000000000 0.000000000
2.420000000 0.000000000 0.000000000 0.9604526224 0.1957554579 0.9604526224 0.1957554579 0.000000000 0.000000000
2.423000000 0.000000000 0.000000000 0.9619012696 0.1885083202 0.9619012696 0.1885083202 0.000000000 0.000000000
2.426000000 0.000000000 0.000000000 0.9632952339 0.1812504660 0.9632952339 0.1812504660 0.000000000 0.000000000
2.429000000 0.000000000 0.000000000 0.9646344363 0.1739823079 0.9646344363 0.1739823079 0.000000000 0.000000000
2.432000000 0.000000000 0.000000000 0.9659188005 0.1667042592 0.9659188005 0.1667042592 0.000000000 0.000000000
2.435000000 0.000000000 0.000000000 0.9671482535 0.1594167336 0.9671482535 0.1594167336 0.000000000 0.000000000
2.438000000 0.000000000 0.000000000 0.9683227254 0.1521201453 0.9683227254 0.1521201453 0.000000000 0.000000000
2.441000000 0.000000000 0.000000000 0.9694421495 0.1448149092 0.9694421495 0.1448149092 0.000000000 0.000000000
2.444000000 0.000000000 0.000000000 0.9705064621 0.1375014406 0.9705064621 0.1375014406 0.000000000 0.000000000
2.447000000 0.000000000 0.000000000 0.9715156027 0.1301801552 0.9715156027 0.1301801552 0.000000000 0.000000000
2.450000000 0.000000000 0.000000000 0.9724695140 0.1228514693 0.9724695140 0.1228514693 0.000000000 0.000000000
2.453000000 0.000000000 0.000000000 0.9733681417 0.1155157994 0.9733681417 0.1155157994 0.000000000 0.000000000
2.456000000 0.000000000 0.000000000 0.9742114347 0.1081735626 0.9742114347 0.1081735626 0.000000000 0.000000000
2.459000000 0.000000000 0.000000000 0.9749993451 0.1008251762 0.9749993451 0.1008251762 0.000000000 0.000000000
2.462000000 0.000000000 0.000000000 0.9757318281 0.09347105812 0.9757318281 0.09347105812 0.000000000 0.000000000
2.465000000 0.000000000 0.000000000 0.9764088421 0.08611162631 0.9764088421 0.08611162631 0.000000000 0.000000000
2.468000000 0.000000000 0.000000000 0.9770303486 0.07874729917 0.9770303486 0.07874729917 0.000000000 0.000000000
2.471000000 0.000000000 0.000000000 0.9775963122 0.07137849535 0.9775963122 0.07137849535 0.000000000 0.000000000
2.474000000 0.000000000 0.000000000 0.9781067007 0.06400563376 0.9781067007 0.06400563376 0.000000000 0.000000000
2.477000000 0.000000000 0.000000000 0.9785614852 0.05662913353 0.9785614852 0.05662913353 0.000000000 0.000000000
2.480000000 0.000000000 0.000000000 0.9789606398 0.04924941402 0.9789606398 0.04924941402 0.000000000 0.000000000
2.483000000 0.000000000 0.000000000 0.9793041419 0.04186689474 0.9793041419 0.04186689474 0.000000000 0.000000000
2.486000000 0.000000000 0.000000000 0.9795919718 0.03448199539 0.9795919718 0.03448199539 0.000000000 0.000000000
2.489000000 0.000000000 0.000000000 0.9798241132 0.02709513578 0.9798241132 0.02709513578 0.000000000 0.000000000
2.492000000 0.000000000 0.000000000 0.9800005529 0.01970673585 0.9800005529 0.01970673585 0.000000000 0.000000000
2.495000000 0.000000000 0.000000000 0.9801212809 0.01231721562 0.9801212809 0.01231721562 0.000000000 0.000000000
2.498000000 0.000000000 0.000000000 0.9801862904 0.004926995174 0.9801862904 0.004926995174 0.000000000 0.000000000
2.501000000 0.000000000 0.000000000 0.9801955776 -0.002463505367 0.9801955776 -0.002463505367 0.000000000 0.000000000
2.504000000 0.000000000 0.000000000 0.9801491420 -0.009853865862 0.9801491420 -0.009853865862 0.000000000 0.000000000
2.507000000 0.000000000 0.000000000 0.9800469862 -0.01724366618 0.9800469862 -0.01724366618 0.000000000 0.000000000
2.510000000 0.000000000 0.000000000 0.9798891161 -0.02463248621 0.9798891161 -0.02463248621 0.000000000 0.000000000
2.513000000 0.000000000 0.000000000 0.9796755406 -0.03201990593 0.9796755406 -0.03201990593 0.000000000 0.000000000
2.516000000 0.000000000 0.000000000 0.9794062718 -0.03940550535 0.9794062718 -0.03940550535 0.000000000 0.000000000
2.519000000 0.000000000 0.000000000 0.9790813252 -0.04678886462 0.9790813252 -0.04678886462 0.000000000 0.000000000
2.522000000 0.000000000 0.000000000 0.9787007191 -0.05416956402 0.9787007191 -0.05416956402 0.000000000 0.000000000
2.525000000 0.000000000 0.000000000 0.9782644751 -0.06154718394 0.9782644751 -0.06154718394 0.000000000 0.000000000
2.528000000 0.000000000 0.000000000 0.9777726182 -0.06892130499 0.9777726182 -0.06892130499 0.000000000 0.000000000
2.531000000 0.000000000 0.000000000 0.9772251762 -0.07629150795 0.9772251762 -0.07629150795 0.000000000 0.000000000
2.534000000 0.000000000 0.000000000 0.9766221802 -0.08365737385 0.9766221802 -0.08365737385 0.000000000 0.000000000
2.537000000 0.000000000 0.000000000 0.9759636647 -0.09101848394 0.9759636647 -0.09101848394 0.000000000 0.000000000
2.540000000 0.000000000 0.000000000 0.9752496669 -0.09837441975 0.9752496669 -0.09837441975 0.000000000 0.000000000
2.543000000 0.000000000 0.000000000 0.9744802274 -0.1057247631 0.9744802274 -0.1057247631 0.000000000 0.000000000
2.546000000 0.000000000 0.000000000 0.9736553901 -0.1130690962 0.9736553901 -0.1130690962 0.000000000 0.000000000
2.549000000 0.000000000 0.000000000 0.9727752018 -0.1204070014 0.9727752018 -0.1204070014 0.000000000 0.000000000
2.552000000 0.000000000 0.000000000 0.9718397125 -0.1277380616 0.9718397125 -0.1277380616 0.000000000 0.000000000
2.555000000 0.000000000 0.000000000 0.9708489754 -0.1350618601 0.9708489754 -0.1350618601 0.000000000 0.000000000
2.558000000 0.000000000 0.000000000 0.9698030469 -0.1423779805 0.9698030469 -0.1423779805 0.000000000 0.000000000
2.561000000 0.000000000 0.000000000 0.9687019864 -0.1496860070 0.9687019864 -0.1496860070 0.000000000 0.000000000
2.564000000 0.000000000 0.000000000 0.9675458565 -0.1569855240 0.9675458565 -0.1569855240 0.000000000 0.000000000
2.567000000 0.000000000 0.000000000 0.9663347229 -0.1642761165 0.9663347229 -0.1642761165 0.000000000 0.000000000
2.570000000 0.000000000 0.000000000 0.9650686545 -0.1715573702 0.9650686545 -0.1715573702 0.000000000 0.000000000
2.573000000 0.000000000 0.000000000 0.9637477232 -0.1788288711 0.9637477232 -0.1788288711 0.000000000 0.000000000
2.576000000 0.000000000 0.000000000 0.9623720042 -0.1860902058 0.9623720042 -0.1860902058 0.000000000 0.000000000
2.579000000 0.000000000 0.000000000 0.9609415756 -0.1933409615 0.9609415756 -0.1933409615 0.000000000 0.000000000
2.582000000 0.000000000 0.000000000 0.9594565188 -0.2005807261 0.9594565188 -0.2005807261 0.000000000 0.000000000
2.585000000 0.000000000 0.000000000 0.9579169182 -0.2078090879 0.9579169182 -0.2078090879 0.000000000 0.000000000
2.588000000 0.000000000 0.000000000 0.9563228613 -0.2150256360 0.9563228613 -0.2150256360 0.000000000 0.000000000
2.591000000 0.000000000 0.000000000 0.9546744387 -0.2222299602 0.9546744387 -0.2222299602 0.000000000 0.000000000
2.594000000 0.000000000 0.000000000 0.9529717442 -0.2294216510 0.9529717442 -0.2294216510 0.000000000 0.000000000
2.597000000 0.000000000 0.000000000 0.9512148745 -0.2366002994 0.9512148745 -0.2366002994 0.000000000 0.000000000
2.600000000 0.000000000 0.000000000 0.9494039295 -0.2437654975 0.9494039295 -0.2437654975 0.000000000 0.000000000
2.603000000 0.000000000 0.000000000 0.9475390122 -0.2509168378 0.9475390122 -0.2509168378 0.000000000 0.000000000
2.606000000 0.000000000 0.000000000 0.9456202286 -0.2580539138 0.9456202286 -0.2580539138 0.000000000 0.000000000
2.609000000 0.000000000 0.000000000 0.9436476877 -0.2651763198 0.9436476877 -0.2651763198 0.000000000 0.000000000
2.612000000 0.000000000 0.000000000 0.9416215018 -0.2722836508 0.9416215018 -0.2722836508 0.000000000 0.000000000
2.615000000 0.000000000 0.000000000 0.9395417859 -0.2793755029 0.9395417859 -0.2793755029 0.000000000 0.000000000
2.618000000 0.000000000 0.000000000 0.9374086584 -0.2864514729 0.9374086584 -0.2864514729 0.000000000 0.000000000
2.621000000 0.000000000 0.000000000 0.9352222404 -0.2935111585 0.9352222404 -0.2935111585 0.000000000 0.000000000
2.624000000 0.000000000 0.000000000 0.9329826563 -0.3005541584 0.9329826563 -0.3005541584 0.000000000 0.000000000
2.627000000 0.000000000 0.000000000 0.9306900334 -0.3075800723 0.9306900334 -0.3075800723 0.000000000 0.000000000
2.630000000 0.000000000 0.000000000 0.9283445020 -0.3145885005 0.9283445020 -0.3145885005 0.000000000 0.000000000
2.633000000 0.000000000 0.000000000 0.9259461955 -0.3215790449 0.9259461955 -0.3215790449 0.000000000 0.000000000
2.636000000 0.000000000 0.000000000 0.9234952502 -0.3285513079 0.9234952502 -0.3285513079 0.000000000 0.000000000
2.639000000 0.000000000 0.000000000 0.9209918055 -0.3355048932 0.9209918055 -0.3355048932 0.000000000 0.000000000
2.642000000 0.000000000 0.000000000 0.9184360036 -0.3424394056 0.9184360036 -0.3424394056 0.000000000 0.000000000
2.645000000 0.000000000 0.000000000 0.9158279898 -0.3493544507 0.9158279898 -0.3493544507 0.000000000 0.000000000
2.648000000 0.000000000 0.000000000 0.9131679125 -0.3562496354 0.9131679125 -0.3562496354 0.000000000 0.000000000
2.651000000 0.000000000 0.000000000 0.9104559228 -0.3631245679 0.9104559228 -0.3631245679 0.000000000 0.000000000
2.654000000 0.000000000 0.000000000 0.9076921749 -0.3699788572 0.9076921749 -0.3699788572 0.000000000 0.000000000
2.657000000 0.000000000 0.000000000 0.9048768259 -0.3768121137 0.9048768259 -0.3768121137 0.000000000 0.000000000
2.660000000 0.000000000 0.000000000 0.9020100359 -0.3836239490 0.9020100359 -0.3836239490 0.000000000 0.000000000
2.663000000 0.000000000 0.000000000 0.8990919679 -0.3904139758 0.8990919679 -0.3904139758 0.000000000 0.000000000
2.666000000 0.000000000 0.000000000 0.8961227876 -0.3971818080 0.8961227876 -0.3971818080 0.000000000 0.000000000
2.669000000 0.000000000 0.000000000 0.8931026641 -0.4039270610 0.8931026641 -0.4039270610 0.000000000 0.000000000
2.672000000 0.000000000 0.000000000 0.8900317688 -0.4106493513 0.8900317688 -0.4106493513 0.000000000 0.000000000
2.675000000 0.000000000 0.000000000 0.8869102764 -0.4173482967 0.8869102764 -0.4173482967 0.000000000 0.000000000
2.678000000 0.000000000 0.000000000 0.8837383644 -0.4240235165 0.8837383644 -0.4240235165 0.000000000 0.000000000
2.681000000 0.000000000 0.000000000 0.8805162130 -0.4306746310 0.8805162130 -0.4306746310 0.000000000 0.000000000
2.684000000 0.000000000 0.000000000 0.8772440055 -0.4373012623 0.8772440055 -0.4373012623 0.000000000 0.000000000
2.687000000 0.000000000 0.000000000 0.8739219278 -0.4439030336 0.8739219278 -0.4439030336 0.000000000 0.000000000
2.690000000 0.000000000 0.000000000 0.8705501688 -0.4504795697 0.8705501688 -0.4504795697 0.000000000 0.000000000
2.693000000 0.000000000 0.000000000 0.8671289203 -0.4570304965 0.8671289203 -0.4570304965 0.000000000 0.000000000
2.696000000 0.000000000 0.000000000 0.8636583766 -0.4635554418 0.8636583766 -0.4635554418 0.000000000 0.000000000
2.699000000 0.000000000 0.000000000 0.8601387351 -0.4700540346 0.8601387351 -0.4700540346 0.000000000 0.000000000
2.702000000 0.000000000 0.000000000 0.8565701959 -0.4765259055 0.8565701959 -0.4765259055 0.000000000 0.000000000
2.705000000 0.000000000 0.000000000 0.8529529619 -0.4829706865 0.8529529619 -0.4829706865 0.000000000 0.000000000
2.708000000 0.000000000 0.000000000 0.8492872386 -0.4893880113 0.8492872386 -0.4893880113 0.000000000 0.000000000
2.711000000 0.000000000 0.000000000 0.8455732344 -0.4957775150 0.8455732344 -0.4957775150 0.000000000 0.000000000
2.714000000 0.000000000 0.000000000 0.8418111606 -0.5021388344 0.8418111606 -0.5021388344 0.000000000 0.000000000
2.717000000 0.000000000 0.000000000 0.8380012309 -0.5084716079 0.8380012309 -0.5084716079 0.000000000 0.000000000
2.720000000 0.000000000 0.000000000 0.8341436620 -0.5147754755 0.8341436620 -0.5147754755 0.000000000 0.000000000
2.723000000 0.000000000 0.000000000 0.8302386732 -0.5210500788 0.8302386732 -0.5210500788 0.000000000 0.000000000
2.726000000 0.000000000 0.000000000 0.8262864864 -0.5272950612 0.8262864864 -0.5272950612 0.000000000 0.000000000
2.729000000 0.000000000 0.000000000 0.8222873263 -0.5335100675 0.8222873263 -0.5335100675 0.000000000 0.000000000
2.732000000 0.000000000 0.000000000 0.8182414204 -0.5396947444 0.8182414204 -0.5396947444 0.000000000 0.000000000
2.735000000 0.000000000 0.000000000 0.8141489984 -0.5458487405 0.8141489984 -0.5458487405 0.000000000 0.000000000
2.738000000 0.000000000 0.000000000 0.8100102933 -0.5519717058 0.8100102933 -0.5519717058 0.000000000 0.000000000
2.741000000 0.000000000 0.000000000 0.8058255401 -0.5580632922 0.8058255401 -0.5580632922 0.000000000 0.000000000
2.744000000 0.000000000 0.000000000 0.8015949768 -0.5641231535 0.8015949768 -0.5641231535 0.000000000 0.000000000
2.747000000 0.000000000 0.000000000 0.7973188439 -0.5701509451 0.7973188439 -0.5701509451 0.000000000 0.000000000
2.750000000 0.000000000 0.000000000 0.7929973846 -0.5761463245 0.7929973846 -0.5761463245 0.000000000 0.000000000
2.753000000 0.000000000 0.000000000 0.7886308444 -0.5821089507 0.7886308444 -0.5821089507 0.000000000 0.000000000
2.756000000 0.000000000 0.000000000 0.7842194716 -0.5880384848 0.7842194716 -0.5880384848 0.000000000 0.000000000
2.759000000 0.000000000 0.000000000 0.7797635169 -0.5939345897 0.7797635169 -0.5939345897 0.000000000 0.000000000
2.762000000 0.000000000 0.000000000 0.7752632338 -0.5997969302 0.7752632338 -0.5997969302 0.000000000 0.000000000
2.765000000 0.000000000 0.000000000 0.7707188780 -0.6056251730 0.7707188780 -0.6056251730 0.000000000 0.000000000
2.768000000 0.000000000 0.000000000 0.7661307079 -0.6114189869 0.7661307079 -0.6114189869 0.000000000 0.000000000
2.771000000 0.000000000 0.000000000 0.7614989843 -0.6171780425 0.7614989843 -0.6171780425 0.000000000 0.000000000
2.774000000 0.000000000 0.000000000 0.7568239705 -0.6229020123 0.7568239705 -0.6229020123 0.000000000 0.000000000
2.777000000 0.000000000 0.000000000 0.7521059322 -0.6285905709 0.7521059322 -0.6285905709 0.000000000 0.000000000
2.780000000 0.000000000 0.000000000 0.7473451378 -0.6342433951 0.7473451378 -0.6342433951 0.000000000 0.000000000
2.783000000 0.000000000 0.000000000 0.7425418578 -0.6398601633 0.7425418578 -0.6398601633 0.000000000 0.000000000
2.786000000 0.000000000 0.000000000 0.7376963652 -0.6454405564 0.7376963652 -0.6454405564 0.000000000 0.000000000
2.789000000 0.000000000 0.000000000 0.7328089357 -0.6509842571 0.7328089357 -0.6509842571 0.000000000 0.000000000
2.792000000 0.000000000 0.000000000 0.7278798469 -0.6564909501 0.7278798469 -0.6564909501 0.000000000 0.000000000
2.795000000 0.000000000 0.000000000 0.7229093792 -0.6619603226 0.7229093792 -0.6619603226 0.000000000 0.000000000
2.798000000 0.000000000 0.000000000 0.7178978150 -0.6673920634 0.7178978150 -0.6673920634 0.000000000 0.000000000
2.801000000 0.000000000 0.000000000 0.7128454393 -0.6727858640 0.7128454393 -0.6727858640 0.000000000 0.000000000
2.804000000 0.000000000 0.000000000 0.7077525393 -0.6781414176 0.7077525393 -0.6781414176 0.000000000 0.000000000
2.807000000 0.000000000 0.000000000 0.7026194046 -0.6834584197 0.7026194046 -0.6834584197 0.000000000 0.000000000
2.810000000 0.000000000 0.000000000 0.6974463268 -0.6887365682 0.6974463268 -0.6887365682 0.000000000 0.000000000
2.813000000 0.000000000 0.000000000 0.6922336002 -0.6939755629 0.6922336002 -0.6939755629 0.000000000 0.000000000
2.816000000 0.000000000 0.000000000 0.6869815210 -0.6991751061 0.6869815210 -0.6991751061 0.000000000 0.000000000
2.819000000 0.000000000 0.000000000 0.6816903879 -0.7043349020 0.6816903879 -0.7043349020 0.000000000 0.000000000
2.822000000 0.000000000 0.000000000 0.6763605016 -0.7094546575 0.6763605016 -0.7094546575 0.000000000 0.000000000
2.825000000 0.000000000 0.000000000 0.6709921650 -0.7145340815 0.6709921650 -0.7145340815 0.000000000 0.000000000
2.828000000 0.000000000 0.000000000 0.6655856835 -0.7195728851 0.6655856835 -0.7195728851 0.000000000 0.000000000
2.831000000 0.000000000 0.000000000 0.6601413644 -0.7245707820 0.6601413644 -0.7245707820 0.000000000 0.000000000
2.834000000 0.000000000 0.000000000 0.6546595171 -0.7295274881 0.6546595171 -0.7295274881 0.000000000 0.000000000
2.837000000 0.000000000 0.000000000 0.6491404533 -0.7344427214 0.6491404533 -0.7344427214 0.000000000 0.000000000
2.840000000 0.000000000 0.000000000 0.6435844867 -0.7393162027 0.6435844867 -0.7393162027 0.000000000 0.000000000
2.843000000 0.000000000 0.000000000 0.6379919332 -0.7441476549 0.6379919332 -0.7441476549 0.000000000 0.000000000
2.846000000 0.000000000 0.000000000 0.6323631108 -0.7489368033 0.6323631108 -0.7489368033 0.000000000 0.000000000
2.849000000 0.000000000 0.000000000 0.6266983393 -0.7536833756 0.6266983393 -0.7536833756 0.000000000 0.000000000
2.852000000 0.000000000 0.000000000 0.6209979409 -0.7583871021 0.6209979409 -0.7583871021 0.000000000 0.000000000
2.855000000 0.000000000 0.000000000 0.6152622396 -0.7630477152 0.6152622396 -0.7630477152 0.000000000 0.000000000
2.858000000 0.000000000 0.000000000 0.6094915614 -0.7676649501 0.6094915614 -0.7676649501 0.000000000 0.000000000
2.861000000 0.000000000 0.000000000 0.6036862345 -0.7722385444 0.6036862345 -0.7722385444 0.000000000 0.000000000
2.864000000 0.000000000 0.000000000 0.5978465889 -0.7767682378 0.5978465889 -0.7767682378 0.000000000 0.000000000
2.867000000 0.000000000 0.000000000 0.5919729565 -0.7812537731 0.5919729565 -0.7812537731 0.000000000 0.000000000
2.870000000 0.000000000 0.000000000 0.5860656712 -0.7856948951 0.5860656712 -0.7856948951 0.000000000 0.000000000
2.873000000 0.000000000 0.000000000 0.5801250688 -0.7900913515 0.5801250688 -0.7900913515 0.000000000 0.000000000
2.876000000 0.000000000 0.000000000 0.5741514872 -0.7944428922 0.5741514872 -0.7944428922 0.000000000 0.000000000
2.879000000 0.000000000 0.000000000 0.5681452657 -0.7987492699 0.5681452657 -0.7987492699 0.000000000 0.000000000
2.882000000 0.000000000 0.000000000 0.5621067461 -0.8030102398 0.5621067461 -0.8030102398 0.000000000 0.000000000
2.885000000 0.000000000 0.000000000 0.5560362713 -0.8072255596 0.5560362713 -0.8072255596 0.000000000 0.000000000
2.888000000 0.000000000 0.000000000 0.5499341867 -0.8113949898 0.5499341867 -0.8113949898 0.000000000 0.000000000
2.891000000 0.000000000 0.000000000 0.5438008391 -0.8155182932 0.5438008391 -0.8155182932 0.000000000 0.000000000
2.894000000 0.000000000 0.000000000 0.5376365771 -0.8195952355 0.5376365771 -0.8195952355 0.000000000 0.000000000
2.897000000 0.000000000 0.000000000 0.5314417512 -0.8236255850 0.5314417512 -0.8236255850 0.000000000 0.000000000
2.900000000 0.000000000 0.000000000 0.5252167136 -0.8276091124 0.5252167136 -0.8276091124 0.000000000 0.000000000
2.903000000 0.000000000 0.000000000 0.5189618181 -0.8315455914 0.5189618181 -0.8315455914 0.000000000 0.000000000
2.906000000 0.000000000 0.000000000 0.5126774203 -0.8354347981 0.5126774203 -0.8354347981 0.000000000 0.000000000
2.909000000 0.000000000 0.000000000 0.5063638775 -0.8392765115 0.5063638775 -0.8392765115 0.000000000 0.000000000
2.912000000 0.000000000 0.000000000 0.5000215486 -0.8430705131 0.5000215486 -0.8430705131 0.000000000 0.000000000
2.915000000 0.000000000 0.000000000 0.4936507941 -0.8468165874 0.4936507941 -0.8468165874 0.000000000 0.000000000
2.918000000 0.000000000 0.000000000 0.4872519762 -0.8505145212 0.4872519762 -0.8505145212 0.000000000 0.000000000
2.921000000 0.000000000 0.000000000 0.4808254588 -0.8541641045 0.4808254588 -0.8541641045 0.000000000 0.000000000
2.924000000 0.000000000 0.000000000 0.4743716070 -0.8577651296 0.4743716070 -0.8577651296 0.000000000 0.000000000
2.927000000 0.000000000 0.000000000 0.4678907879 -0.8613173920 0.4678907879 -0.8613173920 0.000000000 0.000000000
2.930000000 0.000000000 0.000000000 0.4613833698 -0.8648206896 0.4613833698 -0.8648206896 0.000000000 0.000000000
2.933000000 0.000000000 0.000000000 0.4548497227 -0.8682748234 0.4548497227 -0.8682748234 0.000000000 0.000000000
2.936000000 0.000000000 0.000000000 0.4482902180 -0.8716795969 0.4482902180 -0.8716795969 0.000000000 0.000000000
2.939000000 0.000000000 0.000000000 0.4417052286 -0.8750348165 0.4417052286 -0.8750348165 0.000000000 0.000000000
2.942000000 0.000000000 0.000000000 0.4350951289 -0.8783402917 0.4350951289 -0.8783402917 0.000000000 0.000000000
2.945000000 0.000000000 0.000000000 0.4284602946 -0.8815958344 0.4284602946 -0.8815958344 0.000000000 0.000000000
2.948000000 0.000000000 0.000000000 0.4218011028 -0.8848012595 0.4218011028 -0.8848012595 0.000000000 0.000000000
2.951000000 0.000000000 0.000000000 0.4151179323 -0.8879563849 0.4151179323 -0.8879563849 0.000000000 0.000000000
2.954000000 0.000000000 0.000000000 0.4084111629 -0.8910610311 0.4084111629 -0.8910610311 0.000000000 0.000000000
2.957000000 0.000000000 0.000000000 0.4016811758 -0.8941150218 0.4016811758 -0.8941150218 0.000000000 0.000000000
2.960000000 0.000000000 0.000000000 0.3949283538 -0.8971181832 0.3949283538 -0.8971181832 0.000000000 0.000000000
2.963000000 0.000000000 0.000000000 0.3881530805 -0.9000703446 0.3881530805 -0.9000703446 0.000000000 0.000000000
2.966000000 0.000000000 0.000000000 0.3813557413 -0.9029713383 0.3813557413 -0.9029713383 0.000000000 0.000000000
2.969000000 0.000000000 0.000000000 0.3745367225 -0.9058209992 0.3745367225 -0.9058209992 0.000000000 0.000000000
2.972000000 0.000000000 0.000000000 0.3676964119 -0.9086191655 0.3676964119 -0.9086191655 0.000000000 0.000000000
2.975000000 0.000000000 0.000000000 0.3608351982 -0.9113656779 0.3608351982 -0.9113656779 0.000000000 0.000000000
2.978000000 0.000000000 0.000000000 0.3539534714 -0.9140603805 0.3539534714 -0.9140603805 0.000000000 0.000000000
2.981000000 0.000000000 0.000000000 0.3470516229 -0.9167031200 0.3470516229 -0.9167031200 0.000000000 0.000000000
2.984000000 0.000000000 0.000000000 0.3401300450 -0.9192937461 0.3401300450 -0.9192937461 0.000000000 0.000000000
2.987000000 0.000000000 0.000000000 0.3331891312 -0.9218321116 0.3331891312 -0.9218321116 0.000000000 0.000000000
2.990000000 0.000000000 0.000000000 0.3262292760 -0.9243180722 0.3262292760 -0.9243180722 0.000000000 0.000000000
2.993000000 0.000000000 0.000000000 0.3192508751 -0.9267514866 0.3192508751 -0.9267514866 0.000000000 0.000000000
2.996000000 0.000000000 0.000000000 0.3122543252 -0.9291322164 0.3122543252 -0.9291322164 0.000000000 0.000000000
2.999000000 0.000000000 0.000000000 0.3052400241 -0.9314601263 0.3052400241 -0.9314601263 0.000000000 0.000000000
3.002000000 0.000000000 0.000000000 0.2982083705 -0.9337350839 0.2982083705 -0.9337350839 0.000000000 0.000000000
3.005000000 0.000000000 0.000000000 0.2911597642 -0.9359569599 0.2911597642 -0.9359569599 0.000000000 0.000000000
3.008000000 0.000000000 0.000000000 0.2840946058 -0.9381256281 0.2840946058 -0.9381256281 0.000000000 0.000000000
3.011000000 0.000000000 0.000000000 0.2770132970 -0.9402409651 0.2770132970 -0.9402409651 0.000000000 0.000000000
3.014000000 0.000000000 0.000000000 0.2699162404 -0.9423028506 0.2699162404 -0.9423028506 0.000000000 0.000000000
3.017000000 0.000000000 0.000000000 0.2628038394 -0.9443111675 0.2628038394 -0.9443111675 0.000000000 0.000000000
3.020000000 0.000000000 0.000000000 0.2556764984 -0.9462658016 0.2556764984 -0.9462658016 0.000000000 0.000000000
3.023000000 0.000000000 0.000000000 0.2485346225 -0.9481666418 0.2485346225 -0.9481666418 0.000000000 0.000000000
3.026000000 0.000000000 0.000000000 0.2413786178 -0.9500135799 0.2413786178 -0.9500135799 0.000000000 0.000000000
3.029000000 0.000000000 0.000000000 0.2342088910 -0.9518065111 0.2342088910 -0.9518065111 0.000000000 0.000000000
3.032000000 0.000000000 0.000000000 0.2270258497 -0.9535453333 0.2270258497 -0.9535453333 0.000000000 0.000000000
3.035000000 0.000000000 0.000000000 0.2198299023 -0.9552299478 0.2198299023 -0.9552299478 0.000000000 0.000000000
3.038000000 0.000000000 0.000000000 0.2126214579 -0.9568602588 0.2126214579 -0.9568602588 0.000000000 0.000000000
3.041000000 0.000000000 0.000000000 0.2054009263 -0.9584361735 0.2054009263 -0.9584361735 0.000000000 0.000000000
3.044000000 0.000000000 0.000000000 0.1981687179 -0.9599576024 0.1981687179 -0.9599576024 0.000000000 0.000000000
3.047000000 0.000000000 0.000000000 0.1909252438 -0.9614244590 0.1909252438 -0.9614244590 0.000000000 0.000000000
3.050000000 0.000000000 0.000000000 0.1836709160 -0.9628366600 0.1836709160 -0.9628366600 0.000000000 0.000000000
3.053000000 0.000000000 0.000000000 0.1764061466 -0.9641941249 0.1764061466 -0.9641941249 0.000000000 0.000000000
3.056000000 0.000000000 0.000000000 0.1691313489 -0.9654967768 0.1691313489 -0.9654967768 0.000000000 0.000000000
3.059000000 0.000000000 0.000000000 0.1618469362 -0.9667445414 0.1618469362 -0.9667445414 0.000000000 0.000000000
3.062000000 0.000000000 0.000000000 0.1545533227 -0.9679373480 0.1545533227 -0.9679373480 0.000000000 0.000000000
3.065000000 0.000000000 0.000000000 0.1472509232 -0.9690751286 0.1472509232 -0.9690751286 0.000000000 0.000000000
3.068000000 0.000000000 0.000000000 0.1399401525 -0.9701578185 0.1399401525 -0.9701578185 0.000000000 0.000000000
3.071000000 0.000000000 0.000000000 0.1326214265 -0.9711853563 0.1326214265 -0.9711853563 0.000000000 0.000000000
3.074000000 0.000000000 0.000000000 0.1252951612 -0.9721576836 0.1252951612 -0.9721576836 0.000000000 0.000000000
3.077000000 0.000000000 0.000000000 0.1179617729 -0.9730747450 0.1179617729 -0.9730747450 0.000000000 0.000000000
3.080000000 0.000000000 0.000000000 0.1106216787 -0.9739364884 0.1106216787 -0.9739364884 0.000000000 0.000000000
3.083000000 0.000000000 0.000000000 0.1032752958 -0.9747428648 0.1032752958 -0.9747428648 0.000000000 0.000000000
3.086000000 0.000000000 0.000000000 0.09592304188 -0.9754938284 0.09592304188 -0.9754938284 0.000000000 0.000000000
3.089000000 0.000000000 0.000000000 0.08856533484 -0.9761893365 0.08856533484 -0.9761893365 0.000000000 0.000000000
3.092000000 0.000000000 0.000000000 0.08120259297 -0.9768293495 0.08120259297 -0.9768293495 0.000000000 0.000000000
3.095000000 0.000000000 0.000000000 0.07383523484 -0.9774138311 0.07383523484 -0.9774138311 0.000000000 0.000000000
3.098000000 0.000000000 0.000000000 0.06646367928 -0.9779427481 0.06646367928 -0.9779427481 0.000000000 0.000000000
3.101000000 0.000000000 0.000000000 0.05908834535 -0.9784160703 0.05908834535 -0.9784160703 0.000000000 0.000000000
3.104000000 0.000000000 0.000000000 0.05170965233 -0.9788337709 0.05170965233 -0.9788337709 0.000000000 0.000000000
3.107000000 0.000000000 0.000000000 0.04432801968 -0.9791958261 0.04432801968 -0.9791958261 0.000000000 0.000000000
3.110000000 0.000000000 0.000000000 0.03694386705 -0.9795022153 0.03694386705 -0.9795022153 0.000000000 0.000000000
3.113000000 0.000000000 0.000000000 0.02955761421 -0.9797529212 0.02955761421 -0.9797529212 0.000000000 0.000000000
3.116000000 0.000000000 0.000000000 0.02216968105 -0.9799479294 0.02216968105 -0.9799479294 0.000000000 0.000000000
3.119000000 0.000000000 0.000000000 0.01478048758 -0.9800872289 0.01478048758 -0.9800872289 0.000000000 0.000000000
3.122000000 0.000000000 0.000000000 0.007390453859 -0.9801708118 0.007390453859 -0.9801708118 0.000000000 0.000000000
3.125000000 0.000000000 0.000000000 3.000992919e-16 -0.9801986733 3.000992919e-16 -0.9801986733 0.000000000 0.000000000
3.128000000 0.000000000 0.000000000 -0.007390453859 -0.9801708118 -0.007390453859 -0.9801708118 0.000000000 0.000000000
3.131000000 0.000000000 0.000000000 -0.01478048758 -0.9800872289 -0.01478048758 -0.9800872289 0.000000000 0.000000000
3.134000000 0.000000000 0.000000000 -0.02216968105 -0.9799479294 -0.02216968105 -0.9799479294 0.000000000 0.000000000
3.137000000 0.000000000 0.000000000 -0.02955761421 -0.9797529212 -0.02955761421 -0.9797529212 0.000000000 0.000000000
3.140000000 0.000000000 0.000000000 -0.03694386705 -0.9795022153 -0.03694386705 -0.9795022153 0.000000000 0.000000000
3.143000000 0.000000000 0.000000000 -0.04432801968 -0.9791958261 -0.04432801968 -0.9791958261 0.000000000 0.000000000
3.146000000 0.000000000 0.000000000 -0.05170965233 -0.9788337709 -0.05170965233 -0.9788337709 0.000000000 0.000000000
3.149000000 0.000000000 0.000000000 -0.05908834535 -0.9784160703 -0.05908834535 -0.9784160703 0.000000000 0.000000000
3.152000000 0.000000000 0.000000000 -0.06646367928 -0.9779427481 -0.06646367928 -0.9779427481 0.000000000 0.000000000
3.155000000 0.000000000 0.000000000 -0.07383523484 -0.9774138311 -0.07383523484 -0.9774138311 0.000000000 0.000000000
3.158000000 0.000000000 0.000000000 -0.08120259297 -0.9768293495 -0.08120259297 -0.9768293495 0.000000000 0.000000000
3.161000000 0.000000000 0.000000000 -0.08856533484 -0.9761893365 -0.08856533484 -0.9761893365 0.000000000 0.000000000
3.164000000 0.000000000 0.000000000 -0.09592304188 -0.9754938284 -0.09592304188 -0.9754938284 0.000000000 0.000000000
3.167000000 0.000000000 0.000000000 -0.1032752958 -0.9747428648 -0.1032752958 -0.9747428648 0.000000000 0.000000000
3.170000000 0.000000000 0.000000000 -0.1106216787 -0.9739364884 -0.1106216787 -0.9739364884 0.000000000 0.000000000
3.173000000 0.000000000 0.000000000 -0.1179617729 -0.9730747450 -0.1179617729 -0.9730747450 0.000000000 0.000000000
3.176000000 0.000000000 0.000000000 -0.1252951612 -0.9721576836 -0.1252951612 -0.9721576836 0.000000000 0.000000000
3.179000000 0.000000000 0.000000000 -0.1326214265 -0.9711853563 -0.1326214265 -0.9711853563 0.000000000 0.000000000
3.182000000 0.000000000 0.000000000 -0.1399401525 -0.9701578185 -0.1399401525 -0.9701578185 0.000000000 0.000000000
3.185000000 0.000000000 0.000000000 -0.1472509232 -0.9690751286 -0.1472509232 -0.9690751286 0.000000000 0.000000000
3.188000000 0.000000000 0.000000000 -0.1545533227 -0.9679373480 -0.1545533227 -0.9679373480 0.000000000 0.000000000
3.191000000 0.000000000 0.000000000 -0.1618469362 -0.9667445414 -0.1618469362 -0.9667445414 0.000000000 0.000000000
3.194000000 0.000000000 0.000000000 -0.1691313489 -0.9654967768 -0.1691313489 -0.9654967768 0.000000000 0.000000000
3.197000000 0.000000000 0.000000000 -0.1764061466 -0.9641941249 -0.1764061466 -0.9641941249 0.000000000 0.000000000
3.200000000 0.000000000 0.000000000 -0.1836709160 -0.9628366600 -0.1836709160 -0.9628366600 0.000000000 0.000000000
3.203000000 0.000000000 0.000000000 -0.1909252438 -0.9614244590 -0.1909252438 -0.9614244590 0.000000000 0.000000000
3.206000000 0.000000000 0.000000000 -0.1981687179 -0.9599576024 -0.1981687179 -0.9599576024 0.000000000 0.000000000
3.209000000 0.000000000 0.000000000 -0.2054009263 -0.9584361735 -0.2054009263 -0.9584361735 0.000000000 0.000000000
3.212000000 0.000000000 0.000000000 -0.2126214579 -0.9568602588 -0.2126214579 -0.9568602588 0.000000000 0.000000000
3.215000000 0.000000000 0.000000000 -0.2198299023 -0.9552299478 -0.2198299023 -0.9552299478 0.000000000 0.000000000
3.218000000 0.000000000 0.000000000 -0.2270258497 -0.9535453333 -0.2270258497 -0.9535453333 0.000000000 0.000000000
3.221000000 0.000000000 0.000000000 -0.2342088910 -0.9518065111 -0.2342088910 -0.9518065111 0.000000000 0.000000000
3.224000000 0.000000000 0.000000000 -0.2413786178 -0.9500135799 -0.2413786178 -0.9500135799 0.000000000 0.000000000
3.227000000 0.000000000 0.000000000 -0.2485346225 -0.9481666418 -0.2485346225 -0.9481666418 0.000000000 0.000000000
3.230000000 0.000000000 0.000000000 -0.2556764984 -0.9462658016 -0.2556764984 -0.9462658016 0.000000000 0.000000000
3.233000000 0.000000000 0.000000000 -0.2628038394 -0.9443111675 -0.2628038394 -0.9443111675 0.000000000 0.000000000
3.236000000 0.000000000 0.000000000 -0.2699162404 -0.9423028506 -0.2699162404 -0.9423028506 0.000000000 0.000000000
3.239000000 0.000000000 0.000000000 -0.2770132970 -0.9402409651 -0.2770132970 -0.9402409651 0.000000000 0.000000000
3.242000000 0.000000000 0.000000000 -0.2840946058 -0.9381256281 -0.2840946058 -0.9381256281 0.000000000 0.000000000
3.245000000 0.000000000 0.000000000 -0.2911597642 -0.9359569599 -0.2911597642 -0.9359569599 0.000000000 0.000000000
3.248000000 0.000000000 0.000000000 -0.2982083705 -0.9337350839 -0.2982083705 -0.9337350839 0.000000000 0.000000000
3.251000000 0.000000000 0.000000000 -0.3052400241 -0.9314601263 -0.3052400241 -0.9314601263 0.000000000 0.000000000
3.254000000 0.000000000 0.000000000 -0.3122543252 -0.9291322164 -0.3122543252 -0.9291322164 0.000000000 0.000000000
3.257000000 0.000000000 0.000000000 -0.3192508751 -0.9267514866 -0.3192508751 -0.9267514866 0.000000000 0.000000000
3.260000000 0.000000000 0.000000000 -0.3262292760 -0.9243180722 -0.3262292760 -0.9243180722 0.000000000 0.000000000
3.263000000 0.000000000 0.000000000 -0.3331891312 -0.9218321116 -0.3331891312 -0.9218321116 0.000000000 0.000000000
3.266000000 0.000000000 0.000000000 -0.3401300450 -0.9192937461 -0.3401300450 -0.9192937461 0.000000000 0.000000000
3.269000000 0.000000000 0.000000000 -0.3470516229 -0.9167031200 -0.3470516229 -0.9167031200 0.000000000 0.000000000
3.272000000 0.000000000 0.000000000 -0.3539534714 -0.9140603805 -0.3539534714 -0.9140603805 0.000000000 0.000000000
3.275000000 0.000000000 0.000000000 -0.3608351982 -0.9113656779 -0.3608351982 -0.9113656779 0.000000000 0.000000000
3.278000000 0.000000000 0.000000000 -0.3676964119 -0.9086191655 -0.3676964119 -0.9086191655 0.000000000 0.000000000
3.281000000 0.000000000 0.000000000 -0.3745367225 -0.9058209992 -0.3745367225 -0.9058209992 0.000000000 0.000000000
3.284000000 0.000000000 0.000000000 -0.3813557413 -0.9029713383 -0.3813557413 -0.9029713383 0.000000000 0.000000000
3.287000000 0.000000000 0.000000000 -0.3881530805 -0.9000703446 -0.3881530805 -0.9000703446 0.000000000 0.000000000
3.290000000 0.000000000 0.000000000 -0.3949283538 -0.8971181832 -0.3949283538 -0.8971181832 0.000000000 0.000000000
3.293000000 0.000000000 0.000000000 -0.4016811758 -0.8941150218 -0.4016811758 -0.8941150218 0.000000000 0.000000000
3.296000000 0.000000000 0.000000000 -0.4084111629 -0.8910610311 -0.4084111629 -0.8910610311 0.000000000 0.000000000
3.299000000 0.000000000 0.000000000 -0.4151179323 -0.8879563849 -0.4151179323 -0.8879563849 0.000000000 0.000000000
3.302000000 0.000000000 0.000000000 -0.4218011028 -0.8848012595 -0.4218011028 -0.8848012595 0.000000000 0.000000000
3.305000000 0.000000000 0.000000000 -0.4284602946 -0.8815958344 -0.4284602946 -0.8815958344 0.000000000 0.000000000
3.308000000 0.000000000 0.000000000 -0.4350951289 -0.8783402917 -0.4350951289 -0.8783402917 0.000000000 0.000000000
3.311000000 0.000000000 0.000000000 -0.4417052286 -0.8750348165 -0.4417052286 -0.8750348165 0.000000000 0.000000000
3.314000000 0.000000000 0.000000000 -0.4482902180 -0.8716795969 -0.4482902180 -0.8716795969 0.000000000 0.000000000
3.317000000 0.000000000 0.000000000 -0.4548497227 -0.8682748234 -0.4548497227 -0.8682748234 0.000000000 0.000000000
3.320000000 0.000000000 0.000000000 -0.4613833698 -0.8648206896 -0.4613833698 -0.8648206896 0.000000000 0.000000000
3.323000000 0.000000000 0.000000000 -0.4678907879 -0.8613173920 -0.4678907879 -0.8613173920 0.000000000 0.000000000
3.326000000 0.000000000 0.000000000 -0.4743716070 -0.8577651296 -0.4743716070 -0.8577651296 0.000000000 0.000000000
3.329000000 0.000000000 0.000000000 -0.4808254588 -0.8541641045 -0.4808254588 -0.8541641045 0.000000000 0.000000000
3.332000000 0.000000000 0.000000000 -0.4872519762 -0.8505145212 -0.4872519762 -0.8505145212 0.000000000 0.000000000
3.335000000 0.000000000 0.000000000 -0.4936507941 -0.8468165874 -0.4936507941 -0.8468165874 0.000000000 0.000000000
3.338000000 0.000000000 0.000000000 -0.5000215486 -0.8430705131 -0.5000215486 -0.8430705131 0.000000000 0.000000000
3.341000000 0.000000000 0.000000000 -0.5063638775 -0.8392765115 -0.5063638775 -0.8392765115 0.000000000 0.000000000
3.344000000 0.000000000 0.000000000 -0.5126774203 -0.8354347981 -0.5126774203 -0.8354347981 0.000000000 0.000000000
3.347000000 0.000000000 0.000000000 -0.5189618181 -0.8315455914 -0.5189618181 -0.8315455914 0.000000000 0.000000000
3.350000000 0.000000000 0.000000000 -0.5252167136 -0.8276091124 -0.5252167136 -0.8276091124 0.000000000 0.000000000
3.353000000 0.000000000 0.000000000 -0.5314417512 -0.8236255850 -0.5314417512 -0.8236255850 0.000000000 0.000000000
3.356000000 0.000000000 0.000000000 -0.5376365771 -0.8195952355 -0.5376365771 -0.8195952355 0.000000000 0.000000000
3.359000000 0.000000000 0.000000000 -0.5438008391 -0.8155182932 -0.5438008391 -0.8155182932 0.000000000 0.000000000
3.362000000 0.000000000 0.000000000 -0.5499341867 -0.8113949898 -0.5499341867 -0.8113949898 0.000000000 0.000000000
3.365000000 0.000000000 0.000000000 -0.5560362713 -0.8072255596 -0.5560362713 -0.8072255596 0.000000000 0.000000000
3.368000000 0.000000000 0.000000000 -0.5621067461 -0.8030102398 -0.5621067461 -0.8030102398 0.000000000 0.000000000
3.371000000 0.000000000 0.000000000 -0.5681452657 -0.7987492699 -0.5681452657 -0.7987492699 0.000000000 0.000000000
3.374000000 0.000000000 0.000000000 -0.5741514872 -0.7944428922 -0.5741514872 -0.7944428922 0.000000000 0.000000000
3.377000000 0.000000000 0.000000000 -0.5801250688 -0.7900913515 -0.5801250688 -0.7900913515 0.000000000 0.000000000
3.380000000 0.000000000 0.000000000 -0.5860656712 -0.7856948951 -0.5860656712 -0.7856948951 0.000000000 0.000000000
3.383000000 0.000000000 0.000000000 -0.5919729565 -0.7812537731 -0.5919729565 -0.7812537731 0.000000000 0.000000000
3.386000000 0.000000000 0.000000000 -0.5978465889 -0.7767682378 -0.5978465889 -0.7767682378 0.000000000 0.000000000
3.389000000 0.000000000 0.000000000 -0.6036862345 -0.7722385444 -0.6036862345 -0.7722385444 0.000000000 0.000000000
3.392000000 0.000000000 0.000000000 -0.6094915614 -0.7676649501 -0.6094915614 -0.7676649501 0.000000000 0.000000000
3.395000000 0.000000000 0.000000000 -0.6152622396 -0.7630477152 -0.6152622396 -0.7630477152 0.000000000 0.000000000
3.398000000 0.000000000 0.000000000 -0.6209979409 -0.7583871021 -0.6209979409 -0.7583871021 0.000000000 0.000000000
3.401000000 0.000000000 0.000000000 -0.6266983393 -0.7536833756 -0.6266983393 -0.7536833756 0.000000000 0.000000000
3.404000000 0.000000000 0.000000000 -0.6323631108 -0.7489368033 -0.6323631108 -0.7489368033 0.000000000 0.000000000
3.407000000 0.000000000 0.000000000 -0.6379919332 -0.7441476549 -0.6379919332 -0.7441476549 0.000000000 0.000000000
3.410000000 0.000000000 0.000000000 -0.6435844867 -0.7393162027 -0.6435844867 -0.7393162027 0.000000000 0.000000000
3.413000000 0.000000000 0.000000000 -0.6491404533 -0.7344427214 -0.6491404533 -0.7344427214 0.000000000 0.000000000
3.416000000 0.000000000 0.000000000 -0.6546595171 -0.7295274881 -0.6546595171 -0.7295274881 0.000000000 0.000000000
3.419000000 0.000000000 0.000000000 -0.6601413644 -0.7245707820 -0.6601413644 -0.7245707820 0.000000000 0.000000000
3.422000000 0.000000000 0.000000000 -0.6655856835 -0.7195728851 -0.6655856835 -0.7195728851 0.000000000 0.000000000
3.425000000 0.000000000 0.000000000 -0.6709921650 -0.7145340815 -0.6709921650 -0.7145340815 0.000000000 0.000000000
3.428000000 0.000000000 0.000000000 -0.6763605016 -0.7094546575 -0.6763605016 -0.7094546575 0.000000000 0.000000000
3.431000000 0.000000000 0.000000000 -0.6816903879 -0.7043349020 -0.6816903879 -0.7043349020 0.000000000 0.000000000
3.434000000 0.000000000 0.000000000 -0.6869815210 -0.6991751061 -0.6869815210 -0.6991751061 0.000000000 0.000000000
3.437000000 0.000000000 0.000000000 -0.6922336002 -0.6939755629 -0.6922336002 -0.6939755629 0.000000000 0.000000000
3.440000000 0.000000000 0.000000000 -0.6974463268 -0.6887365682 -0.6974463268 -0.6887365682 0.000000000 0.000000000
3.443000000 0.000000000 0.000000000 -0.7026194046 -0.6834584197 -0.7026194046 -0.6834584197 0.000000000 0.000000000
3.446000000 0.000000000 0.000000000 -0.7077525393 -0.6781414176 -0.7077525393 -0.6781414176 0.000000000 0.000000000
3.449000000 0.000000000 0.000000000 -0.7128454393 -0.6727858640 -0.7128454393 -0.6727858640 0.000000000 0.000000000
3.452000000 0.000000000 0.000000000 -0.7178978150 -0.6673920634 -0.7178978150 -0.6673920634 0.000000000 0.000000000
3.455000000 0.000000000 0.000000000 -0.7229093792 -0.6619603226 -0.7229093792 -0.6619603226 0.000000000 0.000000000
3.458000000 0.000000000 0.000000000 -0.7278798469 -0.6564909501 -0.7278798469 -0.6564909501 0.000000000 0.000000000
3.461000000 0.000000000 0.000000000 -0.7328089357 -0.6509842571 -0.7328089357 -0.6509842571 0.000000000 0.000000000
3.464000000 0.000000000 0.000000000 -0.7376963652 -0.6454405564 -0.7376963652 -0.6454405564 0.000000000 0.000000000
3.467000000 0.000000000 0.000000000 -0.7425418578 -0.6398601633 -0.7425418578 -0.6398601633 0.000000000 0.000000000
3.470000000 0.000000000 0.000000000 -0.7473451378 -0.6342433951 -0.7473451378 -0.6342433951 0.000000000 0.000000000
3.473000000 0.000000000 0.000000000 -0.7521059322 -0.6285905709 -0.7521059322 -0.6285905709 0.000000000 0.000000000
3.476000000 0.000000000 0.000000000 -0.7568239705 -0.6229020123 -0.7568239705 -0.6229020123 0.000000000 0.000000000
3.479000000 0.000000000 0.000000000 -0.7614989843 -0.6171780425 -0.7614989843 -0.6171780425 0.000000000 0.000000000
3.482000000 0.000000000 0.000000000 -0.7661307079 -0.6114189869 -0.7661307079 -0.6114189869 0.000000000 0.000000000
3.485000000 0.000000000 0.000000000 -0.7707188780 -0.6056251730 -0.7707188780 -0.6056251730 0.000000000 0.000000000
3.488000000 0.000000000 0.000000000 -0.7752632338 -0.5997969302 -0.7752632338 -0.5997969302 0.000000000 0.000000000
3.491000000 0.000000000 0.000000000 -0.7797635169 -0.5939345897 -0.7797635169 -0.5939345897 0.000000000 0.000000000
3.494000000 0.000000000 0.000000000 -0.7842194716 -0.5880384848 -0.7842194716 -0.5880384848 0.000000000 0.000000000
3.497000000 0.000000000 0.000000000 -0.7886308444 -0.5821089507 -0.7886308444 -0.5821089507 0.000000000 0.000000000
3.500000000 0.000000000 0.000000000 -0.7929973846 -0.5761463245 -0.7929973846 -0.5761463245 0.000000000 0.000000000
3.503000000 0.000000000 0.000000000 -0.7973188439 -0.5701509451 -0.7973188439 -0.5701509451 0.000000000 0.000000000
3.506000000 0.000000000 0.000000000 -0.8015949768 -0.5641231535 -0.8015949768 -0.5641231535 0.000000000 0.000000000
3.509000000 0.000000000 0.000000000 -0.8058255401 -0.5580632922 -0.8058255401 -0.5580632922 0.000000000 0.000000000
3.512000000 0.000000000 0.000000000 -0.8100102933 -0.5519717058 -0.8100102933 -0.5519717058 0.000000000 0.000000000
3.515000000 0.000000000 0.000000000 -0.8141489984 -0.5458487405 -0.8141489984 -0.5458487405 0.000000000 0.000000000
3.518000000 0.000000000 0.000000000 -0.8182414204 -0.5396947444 -0.8182414204 -0.5396947444 0.000000000 0.000000000
3.521000000 0.000000000 0.000000000 -0.8222873263 -0.5335100675 -0.8222873263 -0.5335100675 0.000000000 0.000000000
3.524000000 0.000000000 0.000000000 -0.8262864864 -0.5272950612 -0.8262864864 -0.5272950612 0.000000000 0.000000000
3.527000000 0.000000000 0.000000000 -0.8302386732 -0.5210500788 -0.8302386732 -0.5210500788 0.000000000 0.000000000
3.530000000 0.000000000 0.000000000 -0.8341436620 -0.5147754755 -0.8341436620 -0.5147754755 0.000000000 0.000000000
3.533000000 0.000000000 0.000000000 -0.8380012309 -0.5084716079 -0.8380012309 -0.5084716079 0.000000000 0.000000000
3.536000000 0.000000000 0.000000000 -0.8418111606 -0.5021388344 -0.8418111606 -0.5021388344 0.000000000 0.000000000
3.539000000 0.000000000 0.000000000 -0.8455732344 -0.4957775150 -0.8455732344 -0.4957775150 0.000000000 0.000000000
3.542000000 0.000000000 0.000000000 -0.8492872386 -0.4893880113 -0.8492872386 -0.4893880113 0.000000000 0.000000000
3.545000000 0.000000000 0.000000000 -0.8529529619 -0.4829706865 -0.8529529619 -0.4829706865 0.000000000 0.000000000
3.548000000 0.000000000 0.000000000 -0.8565701959 -0.4765259055 -0.8565701959 -0.4765259055 0.000000000 0.000000000
3.551000000 0.000000000 0.000000000 -0.8601387351 -0.4700540346 -0.8601387351 -0.4700540346 0.000000000 0.000000000
3.554000000 0.000000000 0.000000000 -0.8636583766 -0.4635554418 -0.8636583766 -0.4635554418 0.000000000 0.000000000
3.557000000 0.000000000 0.000000000 -0.8671289203 -0.4570304965 -0.8671289203 -0.4570304965 0.000000000 0.000000000
3.560000000 0.000000000 0.000000000 -0.8705501688 -0.4504795697 -0.8705501688 -0.4504795697 0.000000000 0.000000000
3.563000000 0.000000000 0.000000000 -0.8739219278 -0.4439030336 -0.8739219278 -0.4439030336 0.000000000 0.000000000
3.566000000 0.000000000 0.000000000 -0.8772440055 -0.4373012623 -0.8772440055 -0.4373012623 0.000000000 0.000000000
3.569000000 0.000000000 0.000000000 -0.8805162130 -0.4306746310 -0.8805162130 -0.4306746310 0.000000000 0.000000000
3.572000000 0.000000000 0.000000000 -0.8837383644 -0.4240235165 -0.8837383644 -0.4240235165 0.000000000 0.000000000
3.575000000 0.000000000 0.000000000 -0.8869102764 -0.4173482967 -0.8869102764 -0.4173482967 0.000000000 0.000000000
3.578000000 0.000000000 0.000000000 -0.8900317688 -0.4106493513 -0.8900317688 -0.4106493513 0.000000000 0.000000000
3.581000000 0.000000000 0.000000000 -0.8931026641 -0.4039270610 -0.8931026641 -0.4039270610 0.000000000 0.000000000
3.584000000 0.000000000 0.000000000 -0.8961227876 -0.3971818080 -0.8961227876 -0.3971818080 0.000000000 0.000000000
3.587000000 0.000000000 0.000000000 -0.8990919679 -0.3904139758 -0.8990919679 -0.3904139758 0.000000000 0.000000000
3.590000000 0.000000000 0.000000000 -0.9020100359 -0.3836239490 -0.9020100359 -0.3836239490 0.000000000 0.000000000
3.593000000 0.000000000 0.000000000 -0.9048768259 -0.3768121137 -0.9048768259 -0.3768121137 0.000000000 0.000000000
3.596000000 0.000000000 0.000000000 -0.9076921749 -0.3699788572 -0.9076921749 -0.3699788572 0.000000000 0.000000000
3.599000000 0.000000000 0.000000000 -0.9104559228 -0.3631245679 -0.9104559228 -0.3631245679 0.000000000 0.000000000
3.602000000 0.000000000 0.000000000 -0.9131679125 -0.3562496354 -0.9131679125 -0.3562496354 0.000000000 0.000000000
3.605000000 0.000000000 0.000000000 -0.9158279898 -0.3493544507 -0.9158279898 -0.3493544507 0.000000000 0.000000000
3.608000000 0.000000000 0.000000000 -0.9184360036 -0.3424394056 -0.9184360036 -0.3424394056 0.000000000 0.000000000
3.611000000 0.000000000 0.000000000 -0.9209918055 -0.3355048932 -0.9209918055 -0.3355048932 0.000000000 0.000000000
3.614000000 0.000000000 0.000000000 -0.9234952502 -0.3285513079 -0.9234952502 -0.3285513079 0.000000000 0.000000000
3.617000000 0.000000000 0.000000000 -0.9259461955 -0.3215790449 -0.9259461955 -0.3215790449 0.000000000 0.000000000
3.620000000 0.000000000 0.000000000 -0.9283445020 -0.3145885005 -0.9283445020 -0.3145885005 0.000000000 0.000000000
3.623000000 0.000000000 0.000000000 -0.9306900334 -0.3075800723 -0.9306900334 -0.3075800723 0.000000000 0.000000000
3.626000000 0.000000000 0.000000000 -0.9329826563 -0.3005541584 -0.9329826563 -0.3005541584 0.000000000 0.000000000
3.629000000 0.000000000 0.000000000 -0.9352222404 -0.2935111585 -0.9352222404 -0.2935111585 0.000000000 0.000000000
3.632000000 0.000000000 0.000000000 -0.9374086584 -0.2864514729 -0.9374086584 -0.2864514729 0.000000000 0.000000000
3.635000000 0.000000000 0.000000000 -0.9395417859 -0.2793755029 -0.9395417859 -0.2793755029 0.000000000 0.000000000
3.638000000 0.000000000 0.000000000 -0.9416215018 -0.2722836508 -0.9416215018 -0.2722836508 0.000000000 0.000000000
3.641000000 0.000000000 0.000000000 -0.9436476877 -0.2651763198 -0.9436476877 -0.2651763198 0.000000000 0.000000000
3.644000000 0.000000000 0.000000000 -0.9456202286 -0.2580539138 -0.9456202286 -0.2580539138 0.000000000 0.000000000
3.647000000 0.000000000 0.000000000 -0.9475390122 -0.2509168378 -0.9475390122 -0.2509168378 0.000000000 0.000000000
3.650000000 0.000000000 0.000000000 -0.9494039295 -0.2437654975 -0.9494039295 -0.2437654975 0.000000000 0.000000000
3.653000000 0.000000000 0.000000000 -0.9512148745 -0.2366002994 -0.9512148745 -0.2366002994 0.000000000 0.000000000
3.656000000 0.000000000 0.000000000 -0.9529717442 -0.2294216510 -0.9529717442 -0.2294216510 0.000000000 0.000000000
3.659000000 0.000000000 0.000000000 -0.9546744387 -0.2222299602 -0.9546744387 -0.2222299602 0.000000000 0.000000000
3.662000000 0.000000000 0.000000000 -0.9563228613 -0.2150256360 -0.9563228613 -0.2150256360 0.000000000 0.000000000
3.665000000 0.000000000 0.000000000 -0.9579169182 -0.2078090879 -0.9579169182 -0.2078090879 0.000000000 0.000000000
3.668000000 0.000000000 0.000000000 -0.9594565188 -0.2005807261 -0.9594565188 -0.2005807261 0.000000000 0.000000000
3.671000000 0.000000000 0.000000000 -0.9609415756 -0.1933409615 -0.9609415756 -0.1933409615 0.000000000 0.000000000
3.674000000 0.000000000 0.000000000 -0.9623720042 -0.1860902058 -0.9623720042 -0.1860902058 0.000000000 0.000000000
3.677000000 0.000000000 0.000000000 -0.9637477232 -0.1788288711 -0.9637477232 -0.1788288711 0.000000000 0.000000000
3.680000000 0.000000000 0.000000000 -0.9650686545 -0.1715573702 -0.9650686545 -0.1715573702 0.000000000 0.000000000
3.683000000 0.000000000 0.000000000 -0.9663347229 -0.1642761165 -0.9663347229 -0.1642761165 0.000000000 0.000000000
3.686000000 0.000000000 0.000000000 -0.9675458565 -0.1569855240 -0.9675458565 -0.1569855240 0.000000000 0.000000000
3.689000000 0.000000000 0.000000000 -0.9687019864 -0.1496860070 -0.9687019864 -0.1496860070 0.000000000 0.000000000
3.692000000 0.000000000 0.000000000 -0.9698030469 -0.1423779805 -0.9698030469 -0.1423779805 0.000000000 0.000000000
3.695000000 0.000000000 0.000000000 -0.9708489754 -0.1350618601 -0.9708489754 -0.1350618601 0.000000000 0.000000000
3.698000000 0.000000000 0.000000000 -0.9718397125 -0.1277380616 -0.9718397125 -0.1277380616 0.000000000 0.000000000
3.701000000 0.000000000 0.000000000 -0.9727752018 -0.1204070014 -0.9727752018 -0.1204070014 0.000000000 0.000000000
3.704000000 0.000000000 0.000000000 -0.9736553901 -0.1130690962 -0.9736553901 -0.1130690962 0.000000000 0.000000000
3.707000000 0.000000000 0.000000000 -0.9744802274 -0.1057247631 -0.9744802274 -0.1057247631 0.000000000 0.000000000
3.710000000 0.000000000 0.000000000 -0.9752496669 -0.09837441975 -0.9752496669 -0.09837441975 0.000000000 0.000000000
3.713000000 0.000000000 0.000000000 -0.9759636647 -0.09101848394 -0.9759636647 -0.09101848394 0.000000000 0.000000000
3.716000000 0.000000000 0.000000000 -0.9766221802 -0.08365737385 -0.9766221802 -0.08365737385 0.000000000 0.000000000
3.719000000 0.000000000 0.000000000 -0.9772251762 -0.07629150795 -0.9772251762 -0.07629150795 0.000000000 0.000000000
3.722000000 0.000000000 0.000000000 -0.9777726182 -0.06892130499 -0.9777726182 -0.06892130499 0.000000000 0.000000000
3.725000000 0.000000000 0.000000000 -0.9782644751 -0.06154718394 -0.9782644751 -0.06154718394 0.000000000 0.000000000
3.728000000 0.000000000 0.000000000 -0.9787007191 -0.05416956402 -0.9787007191 -0.05416956402 0.000000000 0.000000000
3.731000000 0.000000000 0.000000000 -0.9790813252 -0.04678886462 -0.9790813252 -0.04678886462 0.000000000 0.000000000
3.734000000 0.000000000 0.000000000 -0.9794062718 -0.03940550535 -0.9794062718 -0.03940550535 0.000000000 0.000000000
3.737000000 0.000000000 0.000000000 -0.9796755406 -0.03201990593 -0.9796755406 -0.03201990593 0.000000000 0.000000000
3.740000000 0.000000000 0.000000000 -0.9798891161 -0.02463248621 -0.9798891161 -0.02463248621 0.000000000 0.000000000
3.743000000 0.000000000 0.000000000 -0.9800469862 -0.01724366618 -0.9800469862 -0.01724366618 0.000000000 0.000000000
3.746000000 0.000000000 0.000000000 -0.9801491420 -0.009853865862 -0.9801491420 -0.009853865862 0.000000000 0.000000000
3.749000000 0.000000000 0.000000000 -0.9801955776 -0.002463505367 -0.9801955776 -0.002463505367 0.000000000 0.000000000
3.752000000 0.000000000 0.000000000 -0.9801862904 0.004926995174 -0.9801862904 0.004926995174 0.000000000 0.000000000
3.755000000 0.000000000 0.000000000 -0.9801212809 0.01231721562 -0.9801212809 0.01231721562 0.000000000 0.000000000
3.758000000 0.000000000 0.000000000 -0.9800005529 0.01970673585 -0.9800005529 0.01970673585 0.000000000 0.000000000
3.761000000 0.000000000 0.000000000 -0.9798241132 0.02709513578 -0.9798241132 0.02709513578 0.000000000 0.000000000
3.764000000 0.000000000 0.000000000 -0.9795919718 0.03448199539 -0.9795919718 0.03448199539 0.000000000 0.000000000
3.767000000 0.000000000 0.000000000 -0.9793041419 0.04186689474 -0.9793041419 0.04186689474 0.000000000 0.000000000
3.770000000 0.000000000 0.000000000 -0.9789606398 0.04924941402 -0.9789606398 0.04924941402 0.000000000 0.000000000
3.773000000 0.000000000 0.000000000 -0.9785614852 0.05662913353 -0.9785614852 0.05662913353 0.000000000 0.000000000
3.776000000 0.000000000 0.000000000 -0.9781067007 0.06400563376 -0.9781067007 0.06400563376 0.000000000 0.000000000
3.779000000 0.000000000 0.000000000 -0.9775963122 0.07137849535 -0.9775963122 0.07137849535 0.000000000 0.000000000
3.782000000 0.000000000 0.000000000 -0.9770303486 0.07874729917 -0.9770303486 0.07874729917 0.000000000 0.000000000
3.785000000 0.000000000 0.000000000 -0.9764088421 0.08611162631 -0.9764088421 0.08611162631 0.000000000 0.000000000
3.788000000 0.000000000 0.000000000 -0.9757318281 0.09347105812 -0.9757318281 0.09347105812 0.000000000 0.000000000
3.791000000 0.000000000 0.000000000 -0.9749993451 0.1008251762 -0.9749993451 0.1008251762 0.000000000 0.000000000
3.794000000 0.000000000 0.000000000 -0.9742114347 0.1081735626 -0.9742114347 0.1081735626 0.000000000 0.000000000
3.797000000 0.000000000 0.000000000 -0.9733681417 0.1155157994 -0.9733681417 0.1155157994 0.000000000 0.000000000
3.800000000 0.000000000 0.000000000 -0.9724695140 0.1228514693 -0.9724695140 0.1228514693 0.000000000 0.000000000
3.803000000 0.000000000 0.000000000 -0.9715156027 0.1301801552 -0.9715156027 0.1301801552 0.000000000 0.000000000
3.806000000 0.000000000 0.000000000 -0.9705064621 0.1375014406 -0.9705064621 0.1375014406 0.000000000 0.000000000
3.809000000 0.000000000 0.000000000 -0.9694421495 0.1448149092 -0.9694421495 0.1448149092 0.000000000 0.000000000
3.812000000 0.000000000 0.000000000 -0.9683227254 0.1521201453 -0.9683227254 0.1521201453 0.000000000 0.000000000
3.815000000 0.000000000 0.000000000 -0.9671482535 0.1594167336 -0.9671482535 0.1594167336 0.000000000 0.000000000
3.818000000 0.000000000 0.000000000 -0.9659188005 0.1667042592 -0.9659188005 0.1667042592 0.000000000 0.000000000
3.821000000 0.000000000 0.000000000 -0.9646344363 0.1739823079 -0.9646344363 0.1739823079 0.000000000 0.000000000
3.824000000 0.000000000 0.000000000 -0.9632952339 0.1812504660 -0.9632952339 0.1812504660 0.000000000 0.000000000
3.827000000 0.000000000 0.000000000 -0.9619012696 0.1885083202 -0.9619012696 0.1885083202 0.000000000 0.000000000
3.830000000 0.000000000 0.000000000 -0.9604526224 0.1957554579 -0.9604526224 0.1957554579 0.000000000 0.000000000
3.833000000 0.000000000 0.000000000 -0.9589493748 0.2029914673 -0.9589493748 0.2029914673 0.000000000 0.000000000
3.836000000 0.000000000 0.000000000 -0.9573916122 0.2102159368 -0.9573916122 0.2102159368 0.000000000 0.000000000
3.839000000 0.000000000 0.000000000 -0.9557794232 0.2174284559 -0.9557794232 0.2174284559 0.000000000 0.000000000
3.842000000 0.000000000 0.000000000 -0.9541128994 0.2246286144 -0.9541128994 0.2246286144 0.000000000 0.000000000
3.845000000 0.000000000 0.000000000 -0.9523921355 0.2318160031 -0.9523921355 0.2318160031 0.000000000 0.000000000
3.848000000 0.000000000 0.000000000 -0.9506172295 0.2389902134 -0.9506172295 0.2389902134 0.000000000 0.000000000
3.851000000 0.000000000 0.000000000 -0.9487882822 0.2461508374 -0.9487882822 0.2461508374 0.000000000 0.000000000
3.854000000 0.000000000 0.000000000 -0.9469053975 0.2532974681 -0.9469053975 0.2532974681 0.000000000 0.000000000
3.857000000 0.000000000 0.000000000 -0.9449686825 0.2604296991 -0.9449686825 0.2604296991 0.000000000 0.000000000
3.860000000 0.000000000 0.000000000 -0.9429782474 0.2675471251 -0.9429782474 0.2675471251 0.000000000 0.000000000
3.863000000 0.000000000 0.000000000 -0.9409342052 0.2746493413 -0.9409342052 0.2746493413 0.000000000 0.000000000
3.866000000 0.000000000 0.000000000 -0.9388366721 0.2817359442 -0.9388366721 0.2817359442 0.000000000 0.000000000
3.869000000 0.000000000 0.000000000 -0.9366857675 0.2888065307 -0.9366857675 0.2888065307 0.000000000 0.000000000
3.872000000 0.000000000 0.000000000 -0.9344816135 0.2958606989 -0.9344816135 0.2958606989 0.000000000 0.000000000
3.875000000 0.000000000 0.000000000 -0.9322243355 0.3028980479 -0.9322243355 0.3028980479 0.000000000 0.000000000
3.878000000 0.000000000 0.000000000 -0.9299140618 0.3099181775 -0.9299140618 0.3099181775 0.000000000 0.000000000
3.881000000 0.000000000 0.000000000 -0.9275509238 0.3169206887 -0.9275509238 0.3169206887 0.000000000 0.000000000
3.884000000 0.000000000 0.000000000 -0.9251350557 0.3239051834 -0.9251350557 0.3239051834 0.000000000 0.000000000
3.887000000 0.000000000 0.000000000 -0.9226665950 0.3308712645 -0.9226665950 0.3308712645 0.000000000 0.000000000
3.890000000 0.000000000 0.000000000 -0.9201456819 0.3378185361 -0.9201456819 0.3378185361 0.000000000 0.000000000
3.893000000 0.000000000 0.000000000 -0.9175724597 0.3447466031 -0.9175724597 0.3447466031 0.000000000 0.000000000
3.896000000 0.000000000 0.000000000 -0.9149470748 0.3516550717 -0.9149470748 0.3516550717 0.000000000 0.000000000
3.899000000 0.000000000 0.000000000 -0.9122696764 0.3585435492 -0.9122696764 0.3585435492 0.000000000 0.000000000
3.902000000 0.000000000 0.000000000 -0.9095404167 0.3654116440 -0.9095404167 0.3654116440 0.000000000 0.000000000
3.905000000 0.000000000 0.000000000 -0.9067594508 0.3722589656 -0.9067594508 0.3722589656 0.000000000 0.000000000
3.908000000 0.000000000 0.000000000 -0.9039269369 0.3790851248 -0.9039269369 0.3790851248 0.000000000 0.000000000
3.911000000 0.000000000 0.000000000 -0.9010430360 0.3858897335 -0.9010430360 0.3858897335 0.000000000 0.000000000
3.914000000 0.000000000 0.000000000 -0.8981079120 0.3926724049 -0.8981079120 0.3926724049 0.000000000 0.000000000
3.917000000 0.000000000 0.000000000 -0.8951217317 0.3994327534 -0.8951217317 0.3994327534 0.000000000 0.000000000
3.920000000 0.000000000 0.000000000 -0.8920846650 0.4061703947 -0.8920846650 0.4061703947 0.000000000 0.000000000
3.923000000 0.000000000 0.000000000 -0.8889968845 0.4128849458 -0.8889968845 0.4128849458 0.000000000 0.000000000
3.926000000 0.000000000 0.000000000 -0.8858585657 0.4195760249 -0.8858585657 0.4195760249 0.000000000 0.000000000
3.929000000 0.000000000 0.000000000 -0.8826698871 0.4262432517 -0.8826698871 0.4262432517 0.000000000 0.000000000
3.932000000 0.000000000 0.000000000 -0.8794310298 0.4328862471 -0.8794310298 0.4328862471 0.000000000 0.000000000
3.935000000 0.000000000 0.000000000 -0.8761421781 0.4395046335 -0.8761421781 0.4395046335 0.000000000 0.000000000
3.938000000 0.000000000 0.000000000 -0.8728035189 0.4460980347 -0.8728035189 0.4460980347 0.000000000 0.000000000
3.941000000 0.000000000 0.000000000 -0.8694152420 0.4526660758 -0.8694152420 0.4526660758 0.000000000 0.000000000
3.944000000 0.000000000 0.000000000 -0.8659775399 0.4592083835 -0.8659775399 0.4592083835 0.000000000 0.000000000
3.947000000 0.000000000 0.000000000 -0.8624906083 0.4657245858 -0.8624906083 0.4657245858 0.000000000 0.000000000
3.950000000 0.000000000 0.000000000 -0.8589546452 0.4722143122 -0.8589546452 0.4722143122 0.000000000 0.000000000
3.953000000 0.000000000 0.000000000 -0.8553698517 0.4786771939 -0.8553698517 0.4786771939 0.000000000 0.000000000
3.956000000 0.000000000 0.000000000 -0.8517364316 0.4851128635 -0.8517364316 0.4851128635 0.000000000 0.000000000
3.959000000 0.000000000 0.000000000 -0.8480545914 0.4915209550 -0.8480545914 0.4915209550 0.000000000 0.000000000
3.962000000 0.000000000 0.000000000 -0.8443245404 0.4979011043 -0.8443245404 0.4979011043 0.000000000 0.000000000
3.965000000 0.000000000 0.000000000 -0.8405464907 0.5042529485 -0.8405464907 0.5042529485 0.000000000 0.000000000
3.968000000 0.000000000 0.000000000 -0.8367206571 0.5105761266 -0.8367206571 0.5105761266 0.000000000 0.000000000
3.971000000 0.000000000 0.000000000 -0.8328472571 0.5168702792 -0.8328472571 0.5168702792 0.000000000 0.000000000
3.974000000 0.000000000 0.000000000 -0.8289265108 0.5231350484 -0.8289265108 0.5231350484 0.000000000 0.000000000
3.977000000 0.000000000 0.000000000 -0.8249586411 0.5293700781 -0.8249586411 0.5293700781 0.000000000 0.000000000
3.980000000 0.000000000 0.000000000 -0.8209438737 0.5355750138 -0.8209438737 0.5355750138 0.000000000 0.000000000
3.983000000 0.000000000 0.000000000 -0.8168824367 0.5417495027 -0.8168824367 0.5417495027 0.000000000 0.000000000
3.986000000 0.000000000 0.000000000 -0.8127745611 0.5478931940 -0.8127745611 0.5478931940 0.000000000 0.000000000
3.989000000 0.000000000 0.000000000 -0.8086204803 0.5540057383 -0.8086204803 0.5540057383 0.000000000 0.000000000
3.992000000 0.000000000 0.000000000 -0.8044204305 0.5600867880 -0.8044204305 0.5600867880 0.000000000 0.000000000
3.995000000 0.000000000 0.000000000 -0.8001746505 0.5661359976 -0.8001746505 0.5661359976 0.000000000 0.000000000
3.998000000 0.000000000 0.000000000 -0.7958833817 0.5721530232 -0.7958833817 0.5721530232 0.000000000 0.000000000
4.001000000 0.000000000 0.000000000 -0.7915468679 0.5781375226 -0.7915468679 0.5781375226 0.000000000 0.000000000
4.004000000 0.000000000 0.000000000 -0.7871653558 0.5840891556 -0.7871653558 0.5840891556 0.000000000 0.000000000
4.007000000 0.000000000 0.000000000 -0.7827390944 0.5900075840 -0.7827390944 0.5900075840 0.000000000 0.000000000
4.010000000 0.000000000 0.000000000 -0.7782683354 0.5958924713 -0.7782683354 0.5958924713 0.000000000 0.000000000
4.013000000 0.000000000 0.000000000 -0.7737533328 0.6017434828 -0.7737533328 0.6017434828 0.000000000 0.000000000
4.016000000 0.000000000 0.000000000 -0.7691943434 0.6075602861 -0.7691943434 0.6075602861 0.000000000 0.000000000
4.019000000 0.000000000 0.000000000 -0.7645916263 0.6133425504 -0.7645916263 0.6133425504 0.000000000 0.000000000
4.022000000 0.000000000 0.000000000 -0.7599454433 0.6190899469 -0.7599454433 0.6190899469 0.000000000 0.000000000
4.025000000 0.000000000 0.000000000 -0.7552560583 0.6248021491 -0.7552560583 0.6248021491 0.000000000 0.000000000
4.028000000 0.000000000 0.000000000 -0.7505237381 0.6304788321 -0.7505237381 0.6304788321 0.000000000 0.000000000
4.031000000 0.000000000 0.000000000 -0.7457487516 0.6361196732 -0.7457487516 0.6361196732 0.000000000 0.000000000
4.034000000 0.000000000 0.000000000 -0.7409313703 0.6417243518 -0.7409313703 0.6417243518 0.000000000 0.000000000
4.037000000 0.000000000 0.000000000 -0.7360718681 0.6472925492 -0.7360718681 0.6472925492 0.000000000 0.000000000
4.040000000 0.000000000 0.000000000 -0.7311705211 0.6528239489 -0.7311705211 0.6528239489 0.000000000 0.000000000
4.043000000 0.000000000 0.000000000 -0.7262276081 0.6583182364 -0.7262276081 0.6583182364 0.000000000 0.000000000
4.046000000 0.000000000 0.000000000 -0.7212434100 0.6637750994 -0.7212434100 0.6637750994 0.000000000 0.000000000
4.049000000 0.000000000 0.000000000 -0.7162182103 0.6691942277 -0.7162182103 0.6691942277 0.000000000 0.000000000
4.052000000 0.000000000 0.000000000 -0.7111522944 0.6745753133 -0.7111522944 0.6745753133 0.000000000 0.000000000
4.055000000 0.000000000 0.000000000 -0.7060459506 0.6799180501 -0.7060459506 0.6799180501 0.000000000 0.000000000
4.058000000 0.000000000 0.000000000 -0.7008994689 0.6852221345 -0.7008994689 0.6852221345 0.000000000 0.000000000
4.061000000 0.000000000 0.000000000 -0.6957131421 0.6904872649 -0.6957131421 0.6904872649 0.000000000 0.000000000
4.064000000 0.000000000 0.000000000 -0.6904872649 0.6957131421 -0.6904872649 0.6957131421 0.000000000 0.000000000
4.067000000 0.000000000 0.000000000 -0.6852221345 0.7008994689 -0.6852221345 0.7008994689 0.000000000 0.000000000
4.070000000 0.000000000 0.000000000 -0.6799180501 0.7060459506 -0.6799180501 0.7060459506 0.000000000 0.000000000
4.073000000 0.000000000 0.000000000 -0.6745753133 0.7111522944 -0.6745753133 0.7111522944 0.000000000 0.000000000
4.076000000 0.000000000 0.000000000 -0.6691942277 0.7162182103 -0.6691942277 0.7162182103 0.000000000 0.000000000
4.079000000 0.000000000 0.000000000 -0.6637750994 0.7212434100 -0.6637750994 0.7212434100 0.000000000 0.000000000
4.082000000 0.000000000 0.000000000 -0.6583182364 0.7262276081 -0.6583182364 0.7262276081 0.000000000 0.000000000
4.085000000 0.000000000 0.000000000 -0.6528239489 0.7311705211 -0.6528239489 0.7311705211 0.000000000 0.000000000
4.088000000 0.000000000 0.000000000 -0.6472925492 0.7360718681 -0.6472925492 0.7360718681 0.000000000 0.000000000
4.091000000 0.000000000 0.000000000 -0.6417243518 0.7409313703 -0.6417243518 0.7409313703 0.000000000 0.000000000
4.094000000 0.000000000 0.000000000 -0.6361196732 0.7457487516 -0.6361196732 0.7457487516 0.000000000 0.000000000
4.097000000 0.000000000 0.000000000 -0.6304788321 0.7505237381 -0.6304788321 0.7505237381 0.000000000 0.000000000
4.100000000 0.000000000 0.000000000 -0.6248021491 0.7552560583 -0.6248021491 0.7552560583 0.000000000 0.000000000
4.103000000 0.000000000 0.000000000 -0.6190899469 0.7599454433 -0.6190899469 0.7599454433 0.000000000 0.000000000
4.106000000 0.000000000 0.000000000 -0.6133425504 0.7645916263 -0.6133425504 0.7645916263 0.000000000 0.000000000
4.109000000 0.000000000 0.000000000 -0.6075602861 0.7691943434 -0.6075602861 0.7691943434 0.000000000 0.000000000
4.112000000 0.000000000 0.000000000 -0.6017434828 0.7737533328 -0.6017434828 0.7737533328 0.000000000 0.000000000
4.115000000 0.000000000 0.000000000 -0.5958924713 0.7782683354 -0.5958924713 0.7782683354 0.000000000 0.000000000
4.118000000 0.000000000 0.000000000 -0.5900075840 0.7827390944 -0.5900075840 0.7827390944 0.000000000 0.000000000
4.121000000 0.000000000 0.000000000 -0.5840891556 0.7871653558 -0.5840891556 0.7871653558 0.000000000 0.000000000
4.124000000 0.000000000 0.000000000 -0.5781375226 0.7915468679 -0.5781375226 0.7915468679 0.000000000 0.000000000
4.127000000 0.000000000 0.000000000 -0.5721530232 0.7958833817 -0.5721530232 0.7958833817 0.000000000 0.000000000
4.130000000 0.000000000 0.000000000 -0.5661359976 0.8001746505 -0.5661359976 0.8001746505 0.000000000 0.000000000
4.133000000 0.000000000 0.000000000 -0.5600867880 0.8044204305 -0.5600867880 0.8044204305 0.000000000 0.000000000
4.136000000 0.000000000 0.000000000 -0.5540057383 0.8086204803 -0.5540057383 0.8086204803 0.000000000 0.000000000
4.139000000 0.000000000 0.000000000 -0.5478931940 0.8127745611 -0.5478931940 0.8127745611 0.000000000 0.000000000
4.142000000 0.000000000 0.000000000 -0.5417495027 0.8168824367 -0.5417495027 0.8168824367 0.000000000 0.000000000
4.145000000 0.000000000 0.000000000 -0.5355750138 0.8209438737 -0.5355750138 0.8209438737 0.000000000 0.000000000
4.148000000 0.000000000 0.000000000 -0.5293700781 0.8249586411 -0.5293700781 0.8249586411 0.000000000 0.000000000
4.151000000 0.000000000 0.000000000 -0.5231350484 0.8289265108 -0.5231350484 0.8289265108 0.000000000 0.000000000
4.154000000 0.000000000 0.000000000 -0.5168702792 0.8328472571 -0.5168702792 0.8328472571 0.000000000 0.000000000
4.157000000 0.000000000 0.000000000 -0.5105761266 0.8367206571 -0.5105761266 0.8367206571 0.000000000 0.000000000
4.160000000 0.000000000 0.000000000 -0.5042529485 0.8405464907 -0.5042529485 0.8405464907 0.000000000 0.000000000
4.163000000 0.000000000 0.000000000 -0.4979011043 0.8443245404 -0.4979011043 0.8443245404 0.000000000 0.000000000
4.166000000 0.000000000 0.000000000 -0.4915209550 0.8480545914 -0.4915209550 0.8480545914 0.000000000 0.000000000
4.169000000 0.000000000 0.000000000 -0.4851128635 0.8517364316 -0.4851128635 0.8517364316 0.000000000 0.000000000
4.172000000 0.000000000 0.000000000 -0.4786771939 0.8553698517 -0.4786771939 0.8553698517 0.000000000 0.000000000
4.175000000 0.000000000 0.000000000 -0.4722143122 0.8589546452 -0.4722143122 0.8589546452 0.000000000 0.000000000
4.178000000 0.000000000 0.000000000 -0.4657245858 0.8624906083 -0.4657245858 0.8624906083 0.000000000 0.000000000
4.181000000 0.000000000 0.000000000 -0.4592083835 0.8659775399 -0.4592083835 0.8659775399 0.000000000 0.000000000
4.184000000 0.000000000 0.000000000 -0.4526660758 0.8694152420 -0.4526660758 0.8694152420 0.000000000 0.000000000
4.187000000 0.000000000 0.000000000 -0.4460980347 0.8728035189 -0.4460980347 0.8728035189 0.000000000 0.000000000
4.190000000 0.000000000 0.000000000 -0.4395046335 0.8761421781 -0.4395046335 0.8761421781 0.000000000 0.000000000
4.193000000 0.000000000 0.000000000 -0.4328862471 0.8794310298 -0.4328862471 0.8794310298 0.000000000 0.000000000
4.196000000 0.000000000 0.000000000 -0.4262432517 0.8826698871 -0.4262432517 0.8826698871 0.000000000 0.000000000
4.199000000 0.000000000 0.000000000 -0.4195760249 0.8858585657 -0.4195760249 0.8858585657 0.000000000 0.000000000
