! Generated by 参数面去嵌台 (reference-plane de-embed bench)
# GHz S RI R 50
0.05000000000 0.001369872208 0.002889670146 0.9674236737 -0.07619305000 0.9674236737 -0.07619305000 0.001369872208 0.002889670146
0.05700000000 0.001437874168 0.003290151340 0.9665254526 -0.08683308287 0.9665254526 -0.08683308287 0.001437874168 0.003290151340
0.06400000000 0.001514672052 0.003689038042 0.9655100493 -0.09746252719 0.9655100493 -0.09746252719 0.001514672052 0.003689038042
0.07100000000 0.001600228561 0.004086136959 0.9643775898 -0.1080800871 0.9643775898 -0.1080800871 0.001600228561 0.004086136959
0.07800000000 0.001694502147 0.004481255668 0.9631282145 -0.1186844682 0.9631282145 -0.1186844682 0.001694502147 0.004481255668
0.08500000000 0.001797447025 0.004874202711 0.9617620784 -0.1292743778 0.9617620784 -0.1292743778 0.001797447025 0.004874202711
0.09200000000 0.001909013205 0.005264787692 0.9602793507 -0.1398485254 0.9602793507 -0.1398485254 0.001909013205 0.005264787692
0.09900000000 0.002029146507 0.005652821363 0.9586802153 -0.1504056221 0.9586802153 -0.1504056221 0.002029146507 0.005652821363
0.1060000000 0.002157788595 0.006038115724 0.9569648704 -0.1609443815 0.9569648704 -0.1609443815 0.002157788595 0.006038115724
0.1130000000 0.002294877003 0.006420484108 0.9551335287 -0.1714635195 0.9551335287 -0.1714635195 0.002294877003 0.006420484108
0.1200000000 0.002440345165 0.006799741275 0.9531864171 -0.1819617546 0.9531864171 -0.1819617546 0.002440345165 0.006799741275
0.1270000000 0.002594122447 0.007175703503 0.9511237768 -0.1924378080 0.9511237768 -0.1924378080 0.002594122447 0.007175703503
0.1340000000 0.002756134185 0.007548188674 0.9489458634 -0.2028904036 0.9489458634 -0.2028904036 0.002756134185 0.007548188674
0.1410000000 0.002926301720 0.007917016368 0.9466529468 -0.2133182686 0.9466529468 -0.2133182686 0.002926301720 0.007917016368
0.1480000000 0.003104542435 0.008282007945 0.9442453108 -0.2237201334 0.9442453108 -0.2237201334 0.003104542435 0.008282007945
0.1550000000 0.003290769799 0.008642986637 0.9417232538 -0.2340947316 0.9417232538 -0.2340947316 0.003290769799 0.008642986637
0.1620000000 0.003484893404 0.008999777629 0.9390870878 -0.2444408004 0.9390870878 -0.2444408004 0.003484893404 0.008999777629
0.1690000000 0.003686819017 0.009352208149 0.9363371394 -0.2547570807 0.9363371394 -0.2547570807 0.003686819017 0.009352208149
0.1760000000 0.003896448619 0.009700107549 0.9334737488 -0.2650423174 0.9334737488 -0.2650423174 0.003896448619 0.009700107549
0.1830000000 0.004113680458 0.01004330739 0.9304972704 -0.2752952592 0.9304972704 -0.2752952592 0.004113680458 0.01004330739
0.1900000000 0.004338409097 0.01038164151 0.9274080725 -0.2855146590 0.9274080725 -0.2855146590 0.004338409097 0.01038164151
0.1970000000 0.004570525466 0.01071494615 0.9242065373 -0.2956992743 0.9242065373 -0.2956992743 0.004570525466 0.01071494615
0.2040000000 0.004809916915 0.01104305996 0.9208930605 -0.3058478667 0.9208930605 -0.3058478667 0.004809916915 0.01104305996
0.2110000000 0.005056467269 0.01136582414 0.9174680521 -0.3159592028 0.9174680521 -0.3159592028 0.005056467269 0.01136582414
0.2180000000 0.005310056888 0.01168308250 0.9139319353 -0.3260320538 0.9139319353 -0.3260320538 0.005310056888 0.01168308250
0.2250000000 0.005570562721 0.01199468151 0.9102851472 -0.3360651960 0.9102851472 -0.3360651960 0.005570562721 0.01199468151
0.2320000000 0.005837858370 0.01230047042 0.9065281384 -0.3460574106 0.9065281384 -0.3460574106 0.005837858370 0.01230047042
0.2390000000 0.006111814150 0.01260030130 0.9026613731 -0.3560074844 0.9026613731 -0.3560074844 0.006111814150 0.01260030130
0.2460000000 0.006392297154 0.01289402909 0.8986853287 -0.3659142093 0.8986853287 -0.3659142093 0.006392297154 0.01289402909
0.2530000000 0.006679171315 0.01318151176 0.8946004962 -0.3757763830 0.8946004962 -0.3757763830 0.006679171315 0.01318151176
0.2600000000 0.006972297479 0.01346261026 0.8904073799 -0.3855928088 0.8904073799 -0.3855928088 0.006972297479 0.01346261026
0.2670000000 0.007271533463 0.01373718868 0.8861064971 -0.3953622959 0.8861064971 -0.3953622959 0.007271533463 0.01373718868
0.2740000000 0.007576734137 0.01400511427 0.8816983785 -0.4050836596 0.8816983785 -0.4050836596 0.007576734137 0.01400511427
0.2810000000 0.007887751484 0.01426625752 0.8771835677 -0.4147557213 0.8771835677 -0.4147557213 0.007887751484 0.01426625752
0.2880000000 0.008204434678 0.01452049222 0.8725626215 -0.4243773088 0.8725626215 -0.4243773088 0.008204434678 0.01452049222
0.2950000000 0.008526630159 0.01476769552 0.8678361094 -0.4339472561 0.8678361094 -0.4339472561 0.008526630159 0.01476769552
0.3020000000 0.008854181702 0.01500774798 0.8630046139 -0.4434644042 0.8630046139 -0.4434644042 0.008854181702 0.01500774798
0.3090000000 0.009186930500 0.01524053364 0.8580687302 -0.4529276005 0.8580687302 -0.4529276005 0.009186930500 0.01524053364
0.3160000000 0.009524715237 0.01546594007 0.8530290662 -0.4623356995 0.8530290662 -0.4623356995 0.009524715237 0.01546594007
0.3230000000 0.009867372170 0.01568385844 0.8478862423 -0.4716875627 0.8478862423 -0.4716875627 0.009867372170 0.01568385844
0.3300000000 0.01021473521 0.01589418354 0.8426408915 -0.4809820587 0.8426408915 -0.4809820587 0.01021473521 0.01589418354
0.3370000000 0.01056663599 0.01609681386 0.8372936592 -0.4902180634 0.8372936592 -0.4902180634 0.01056663599 0.01609681386
0.3440000000 0.01092290397 0.01629165162 0.8318452031 -0.4993944602 0.8318452031 -0.4993944602 0.01092290397 0.01629165162
0.3510000000 0.01128336650 0.01647860283 0.8262961931 -0.5085101401 0.8262961931 -0.5085101401 0.01128336650 0.01647860283
0.3580000000 0.01164784892 0.01665757733 0.8206473113 -0.5175640018 0.8206473113 -0.5175640018 0.01164784892 0.01665757733
0.3650000000 0.01201617462 0.01682848882 0.8148992518 -0.5265549517 0.8148992518 -0.5265549517 0.01201617462 0.01682848882
0.3720000000 0.01238816517 0.01699125494 0.8090527207 -0.5354819043 0.8090527207 -0.5354819043 0.01238816517 0.01699125494
0.3790000000 0.01276364036 0.01714579726 0.8031084359 -0.5443437822 0.8031084359 -0.5443437822 0.01276364036 0.01714579726
0.3860000000 0.01314241830 0.01729204135 0.7970671270 -0.5531395163 0.7970671270 -0.5531395163 0.01314241830 0.01729204135
0.3930000000 0.01352431556 0.01742991680 0.7909295353 -0.5618680457 0.7909295353 -0.5618680457 0.01352431556 0.01742991680
0.4000000000 0.01390914715 0.01755935726 0.7846964138 -0.5705283180 0.7846964138 -0.5705283180 0.01390914715 0.01755935726
0.4070000000 0.01429672674 0.01768030048 0.7783685267 -0.5791192896 0.7783685267 -0.5791192896 0.01429672674 0.01768030048
0.4140000000 0.01468686664 0.01779268833 0.7719466496 -0.5876399254 0.7719466496 -0.5876399254 0.01468686664 0.01779268833
0.4210000000 0.01507937796 0.01789646680 0.7654315695 -0.5960891993 0.7654315695 -0.5960891993 0.01507937796 0.01789646680
0.4280000000 0.01547407068 0.01799158609 0.7588240844 -0.6044660942 0.7588240844 -0.6044660942 0.01547407068 0.01799158609
0.4350000000 0.01587075372 0.01807800058 0.7521250032 -0.6127696018 0.7521250032 -0.6127696018 0.01587075372 0.01807800058
0.4420000000 0.01626923509 0.01815566887 0.7453351460 -0.6209987233 0.7453351460 -0.6209987233 0.01626923509 0.01815566887
0.4490000000 0.01666932191 0.01822455379 0.7384553436 -0.6291524693 0.7384553436 -0.6291524693 0.01666932191 0.01822455379
0.4560000000 0.01707082058 0.01828462243 0.7314864372 -0.6372298594 0.7314864372 -0.6372298594 0.01707082058 0.01828462243
0.4630000000 0.01747353679 0.01833584616 0.7244292791 -0.6452299232 0.7244292791 -0.6452299232 0.01747353679 0.01833584616
0.4700000000 0.01787727570 0.01837820060 0.7172847316 -0.6531516997 0.7172847316 -0.6531516997 0.01787727570 0.01837820060
0.4770000000 0.01828184197 0.01841166571 0.7100536677 -0.6609942378 0.7100536677 -0.6609942378 0.01828184197 0.01841166571
0.4840000000 0.01868703988 0.01843622570 0.7027369703 -0.6687565962 0.7027369703 -0.6687565962 0.01868703988 0.01843622570
0.4910000000 0.01909267344 0.01845186914 0.6953355328 -0.6764378435 0.6953355328 -0.6764378435 0.01909267344 0.01845186914
0.4980000000 0.01949854645 0.01845858888 0.6878502583 -0.6840370587 0.6878502583 -0.6840370587 0.01949854645 0.01845858888
0.5050000000 0.01990446263 0.01845638210 0.6802820598 -0.6915533305 0.6802820598 -0.6915533305 0.01990446263 0.01845638210
0.5120000000 0.02031022567 0.01844525029 0.6726318604 -0.6989857584 0.6726318604 -0.6989857584 0.02031022567 0.01844525029
0.5190000000 0.02071563938 0.01842519926 0.6649005924 -0.7063334519 0.6649005924 -0.7063334519 0.02071563938 0.01842519926
0.5260000000 0.02112050774 0.01839623913 0.6570891979 -0.7135955313 0.6570891979 -0.7135955313 0.02112050774 0.01839623913
0.5330000000 0.02152463503 0.01835838433 0.6491986284 -0.7207711271 0.6491986284 -0.7207711271 0.02152463503 0.01835838433
0.5400000000 0.02192782589 0.01831165358 0.6412298444 -0.7278593810 0.6412298444 -0.7278593810 0.02192782589 0.01831165358
0.5470000000 0.02232988545 0.01825606990 0.6331838160 -0.7348594450 0.6331838160 -0.7348594450 0.02232988545 0.01825606990
0.5540000000 0.02273061937 0.01819166058 0.6250615221 -0.7417704822 0.6250615221 -0.7417704822 0.02273061937 0.01819166058
0.5610000000 0.02312983401 0.01811845716 0.6168639503 -0.7485916666 0.6168639503 -0.7485916666 0.02312983401 0.01811845716
0.5680000000 0.02352733646 0.01803649545 0.6085920974 -0.7553221833 0.6085920974 -0.7553221833 0.02352733646 0.01803649545
0.5750000000 0.02392293467 0.01794581548 0.6002469685 -0.7619612285 0.6002469685 -0.7619612285 0.02392293467 0.01794581548
0.5820000000 0.02431643750 0.01784646148 0.5918295774 -0.7685080097 0.5918295774 -0.7685080097 0.02431643750 0.01784646148
0.5890000000 0.02470765486 0.01773848187 0.5833409464 -0.7749617456 0.5833409464 -0.7749617456 0.02470765486 0.01773848187
0.5960000000 0.02509639779 0.01762192924 0.5747821059 -0.7813216662 0.5747821059 -0.7813216662 0.02509639779 0.01762192924
0.6030000000 0.02548247853 0.01749686031 0.5661540944 -0.7875870133 0.5661540944 -0.7875870133 0.02548247853 0.01749686031
0.6100000000 0.02586571062 0.01736333590 0.5574579586 -0.7937570399 0.5574579586 -0.7937570399 0.02586571062 0.01736333590
0.6170000000 0.02624590900 0.01722142091 0.5486947529 -0.7998310110 0.5486947529 -0.7998310110 0.02624590900 0.01722142091
0.6240000000 0.02662289009 0.01707118431 0.5398655397 -0.8058082028 0.5398655397 -0.8058082028 0.02662289009 0.01707118431
0.6310000000 0.02699647187 0.01691269906 0.5309713887 -0.8116879039 0.5309713887 -0.8116879039 0.02699647187 0.01691269906
0.6380000000 0.02736647399 0.01674604208 0.5220133773 -0.8174694142 0.5220133773 -0.8174694142 0.02736647399 0.01674604208
0.6450000000 0.02773271785 0.01657129426 0.5129925902 -0.8231520459 0.5129925902 -0.8231520459 0.02773271785 0.01657129426
0.6520000000 0.02809502665 0.01638854037 0.5039101194 -0.8287351231 0.5039101194 -0.8287351231 0.02809502665 0.01638854037
0.6590000000 0.02845322554 0.01619786904 0.4947670639 -0.8342179819 0.4947670639 -0.8342179819 0.02845322554 0.01619786904
0.6660000000 0.02880714164 0.01599937272 0.4855645297 -0.8395999706 0.4855645297 -0.8395999706 0.02880714164 0.01599937272
0.6730000000 0.02915660417 0.01579314762 0.4763036295 -0.8448804497 0.4763036295 -0.8448804497 0.02915660417 0.01579314762
0.6800000000 0.02950144451 0.01557929368 0.4669854828 -0.8500587920 0.4669854828 -0.8500587920 0.02950144451 0.01557929368
0.6870000000 0.02984149626 0.01535791450 0.4576112158 -0.8551343825 0.4576112158 -0.8551343825 0.02984149626 0.01535791450
0.6940000000 0.03017659539 0.01512911731 0.4481819607 -0.8601066189 0.4481819607 -0.8601066189 0.03017659539 0.01512911731
0.7010000000 0.03050658023 0.01489301292 0.4386988565 -0.8649749111 0.4386988565 -0.8649749111 0.03050658023 0.01489301292
0.7080000000 0.03083129160 0.01464971563 0.4291630480 -0.8697386816 0.4291630480 -0.8697386816 0.03083129160 0.01464971563
0.7150000000 0.03115057290 0.01439934322 0.4195756860 -0.8743973654 0.4195756860 -0.8743973654 0.03115057290 0.01439934322
0.7220000000 0.03146427013 0.01414201688 0.4099379274 -0.8789504102 0.4099379274 -0.8789504102 0.03146427013 0.01414201688
0.7290000000 0.03177223200 0.01387786112 0.4002509345 -0.8833972764 0.4002509345 -0.8833972764 0.03177223200 0.01387786112
0.7360000000 0.03207431002 0.01360700376 0.3905158756 -0.8877374372 0.3905158756 -0.8877374372 0.03207431002 0.01360700376
0.7430000000 0.03237035852 0.01332957582 0.3807339242 -0.8919703785 0.3807339242 -0.8919703785 0.03237035852 0.01332957582
0.7500000000 0.03266023477 0.01304571150 0.3709062591 -0.8960955990 0.3709062591 -0.8960955990 0.03266023477 0.01304571150
0.7570000000 0.03294379899 0.01275554808 0.3610340644 -0.9001126104 0.3610340644 -0.9001126104 0.03294379899 0.01275554808
0.7640000000 0.03322091451 0.01245922586 0.3511185292 -0.9040209372 0.3511185292 -0.9040209372 0.03322091451 0.01245922586
0.7710000000 0.03349144771 0.01215688812 0.3411608475 -0.9078201172 0.3411608475 -0.9078201172 0.03349144771 0.01215688812
0.7780000000 0.03375526821 0.01184868103 0.3311622180 -0.9115097008 0.3311622180 -0.9115097008 0.03375526821 0.01184868103
0.7850000000 0.03401224885 0.01153475355 0.3211238442 -0.9150892519 0.3211238442 -0.9150892519 0.03401224885 0.01153475355
0.7920000000 0.03426226576 0.01121525742 0.3110469340 -0.9185583471 0.3110469340 -0.9185583471 0.03426226576 0.01121525742
0.7990000000 0.03450519845 0.01089034704 0.3009326995 -0.9219165765 0.3009326995 -0.9219165765 0.03450519845 0.01089034704
0.8060000000 0.03474092985 0.01056017942 0.2907823572 -0.9251635432 0.2907823572 -0.9251635432 0.03474092985 0.01056017942
0.8130000000 0.03496934638 0.01022491408 0.2805971276 -0.9282988637 0.2805971276 -0.9282988637 0.03496934638 0.01022491408
0.8200000000 0.03519033795 0.009884712996 0.2703782351 -0.9313221676 0.2703782351 -0.9313221676 0.03519033795 0.009884712996
0.8270000000 0.03540379810 0.009539740517 0.2601269079 -0.9342330979 0.2601269079 -0.9342330979 0.03540379810 0.009539740517
0.8340000000 0.03560962397 0.009190163277 0.2498443779 -0.9370313109 0.2498443779 -0.9370313109 0.03560962397 0.009190163277
0.8410000000 0.03580771641 0.008836150122 0.2395318805 -0.9397164763 0.2395318805 -0.9397164763 0.03580771641 0.008836150122
0.8480000000 0.03599797998 0.008477872027 0.2291906543 -0.9422882773 0.2291906543 -0.9422882773 0.03599797998 0.008477872027
0.8550000000 0.03618032302 0.008115502013 0.2188219414 -0.9447464103 0.2188219414 -0.9447464103 0.03618032302 0.008115502013
0.8620000000 0.03635465770 0.007749215065 0.2084269866 -0.9470905854 0.2084269866 -0.9470905854 0.03635465770 0.007749215065
0.8690000000 0.03652090003 0.007379188049 0.1980070381 -0.9493205261 0.1980070381 -0.9493205261 0.03652090003 0.007379188049
0.8760000000 0.03667896996 0.007005599622 0.1875633466 -0.9514359694 0.1875633466 -0.9514359694 0.03667896996 0.007005599622
0.8830000000 0.03682879133 0.006628630153 0.1770971655 -0.9534366658 0.1770971655 -0.9534366658 0.03682879133 0.006628630153
0.8900000000 0.03697029199 0.006248461631 0.1666097508 -0.9553223795 0.1666097508 -0.9553223795 0.03697029199 0.006248461631
0.8970000000 0.03710340379 0.005865277580 0.1561023607 -0.9570928882 0.1561023607 -0.9570928882 0.03710340379 0.005865277580
0.9040000000 0.03722806262 0.005479262970 0.1455762558 -0.9587479832 0.1455762558 -0.9587479832 0.03722806262 0.005479262970
0.9110000000 0.03734420844 0.005090604130 0.1350326988 -0.9602874695 0.1350326988 -0.9602874695 0.03734420844 0.005090604130
0.9180000000 0.03745178533 0.004699488655 0.1244729542 -0.9617111655 0.1244729542 -0.9617111655 0.03745178533 0.004699488655
0.9250000000 0.03755074148 0.004306105319 0.1138982885 -0.9630189037 0.1138982885 -0.9630189037 0.03755074148 0.004306105319
0.9320000000 0.03764102923 0.003910643984 0.1033099697 -0.9642105299 0.1033099697 -0.9642105299 0.03764102923 0.003910643984
0.9390000000 0.03772260511 0.003513295508 0.09270926731 -0.9652859037 0.09270926731 -0.9652859037 0.03772260511 0.003513295508
0.9460000000 0.03779542983 0.003114251654 0.08209745242 -0.9662448986 0.08209745242 -0.9662448986 0.03779542983 0.003114251654
0.9530000000 0.03785946833 0.002713704998 0.07147579719 -0.9670874014 0.07147579719 -0.9670874014 0.03785946833 0.002713704998
0.9600000000 0.03791468978 0.002311848835 0.06084557492 -0.9678133130 0.06084557492 -0.9678133130 0.03791468978 0.002311848835
0.9670000000 0.03796106758 0.001908877090 0.05020805988 -0.9684225480 0.05020805988 -0.9684225480 0.03796106758 0.001908877090
0.9740000000 0.03799857939 0.001504984223 0.03956452712 -0.9689150345 0.03956452712 -0.9689150345 0.03799857939 0.001504984223
0.9810000000 0.03802720717 0.001100365132 0.02891625240 -0.9692907146 0.02891625240 -0.9692907146 0.03802720717 0.001100365132
0.9880000000 0.03804693713 0.0006952150681 0.01826451199 -0.9695495440 0.01826451199 -0.9695495440 0.03804693713 0.0006952150681
0.9950000000 0.03805775976 0.0002897295333 0.007610582528 -0.9696914922 0.007610582528 -0.9696914922 0.03805775976 0.0002897295333
1.002000000 0.03805966985 -0.0001158958081 -0.003044259073 -0.9697165426 -0.003044259073 -0.9697165426 0.03805966985 -0.0001158958081
1.009000000 0.03805266649 -0.0005214652249 -0.01369873581 -0.9696246922 -0.01369873581 -0.9696246922 0.03805266649 -0.0005214652249
1.016000000 0.03803675305 -0.0009267830129 -0.02435157073 -0.9694159518 -0.02435157073 -0.9694159518 0.03803675305 -0.0009267830129
1.023000000 0.03801193719 -0.001331653588 -0.03500148706 -0.9690903460 -0.03500148706 -0.9690903460 0.03801193719 -0.001331653588
1.030000000 0.03797823085 -0.001735881582 -0.04564720833 -0.9686479130 -0.04564720833 -0.9686479130 0.03797823085 -0.001735881582
1.037000000 0.03793565027 -0.002139271933 -0.05628745856 -0.9680887052 -0.05628745856 -0.9680887052 0.03793565027 -0.002139271933
1.044000000 0.03788421595 -0.002541629982 -0.06692096239 -0.9674127882 -0.06692096239 -0.9674127882 0.03788421595 -0.002541629982
1.051000000 0.03782395266 -0.002942761563 -0.07754644518 -0.9666202416 -0.07754644518 -0.9666202416 0.03782395266 -0.002942761563
1.058000000 0.03775488941 -0.003342473100 -0.08816263320 -0.9657111589 -0.08816263320 -0.9657111589 0.03775488941 -0.003342473100
1.065000000 0.03767705947 -0.003740571697 -0.09876825377 -0.9646856471 -0.09876825377 -0.9646856471 0.03767705947 -0.003740571697
1.072000000 0.03759050030 -0.004136865232 -0.1093620354 -0.9635438269 -0.1093620354 -0.9635438269 0.03759050030 -0.004136865232
1.079000000 0.03749525358 -0.004531162447 -0.1199427078 -0.9622858330 -0.1199427078 -0.9622858330 0.03749525358 -0.004531162447
1.086000000 0.03739136520 -0.004923273043 -0.1305090023 -0.9609118134 -0.1305090023 -0.9609118134 0.03739136520 -0.004923273043
1.093000000 0.03727888516 -0.005313007769 -0.1410596518 -0.9594219301 -0.1410596518 -0.9594219301 0.03727888516 -0.005313007769
1.100000000 0.03715786765 -0.005700178512 -0.1515933909 -0.9578163586 -0.1515933909 -0.9578163586 0.03715786765 -0.005700178512
1.107000000 0.03702837094 -0.006084598390 -0.1621089561 -0.9560952882 -0.1621089561 -0.9560952882 0.03702837094 -0.006084598390
1.114000000 0.03689045740 -0.006466081840 -0.1726050859 -0.9542589216 -0.1726050859 -0.9542589216 0.03689045740 -0.006466081840
1.121000000 0.03674419344 -0.006844444708 -0.1830805211 -0.9523074754 -0.1830805211 -0.9523074754 0.03674419344 -0.006844444708
1.128000000 0.03658964952 -0.007219504335 -0.1935340046 -0.9502411796 -0.1935340046 -0.9502411796 0.03658964952 -0.007219504335
1.135000000 0.03642690007 -0.007591079648 -0.2039642820 -0.9480602778 -0.2039642820 -0.9480602778 0.03642690007 -0.007591079648
1.142000000 0.03625602348 -0.007958991246 -0.2143701013 -0.9457650272 -0.2143701013 -0.9457650272 0.03625602348 -0.007958991246
1.149000000 0.03607710207 -0.008323061484 -0.2247502134 -0.9433556986 -0.2247502134 -0.9433556986 0.03607710207 -0.008323061484
1.156000000 0.03589022201 -0.008683114562 -0.2351033719 -0.9408325761 -0.2351033719 -0.9408325761 0.03589022201 -0.008683114562
1.163000000 0.03569547333 -0.009038976606 -0.2454283335 -0.9381959574 -0.2454283335 -0.9381959574 0.03569547333 -0.009038976606
1.170000000 0.03549294986 -0.009390475753 -0.2557238581 -0.9354461537 -0.2557238581 -0.9354461537 0.03549294986 -0.009390475753
1.177000000 0.03528274917 -0.009737442236 -0.2659887090 -0.9325834895 -0.2659887090 -0.9325834895 0.03528274917 -0.009737442236
1.184000000 0.03506497252 -0.01007970846 -0.2762216527 -0.9296083028 -0.2762216527 -0.9296083028 0.03506497252 -0.01007970846
1.191000000 0.03483972485 -0.01041710909 -0.2864214594 -0.9265209449 -0.2864214594 -0.9265209449 0.03483972485 -0.01041710909
1.198000000 0.03460711469 -0.01074948113 -0.2965869031 -0.9233217803 -0.2965869031 -0.9233217803 0.03460711469 -0.01074948113
1.205000000 0.03436725413 -0.01107666399 -0.3067167615 -0.9200111871 -0.3067167615 -0.9200111871 0.03436725413 -0.01107666399
1.212000000 0.03412025876 -0.01139849957 -0.3168098166 -0.9165895564 -0.3168098166 -0.9165895564 0.03412025876 -0.01139849957
1.219000000 0.03386624760 -0.01171483235 -0.3268648542 -0.9130572925 -0.3268648542 -0.9130572925 0.03386624760 -0.01171483235
1.226000000 0.03360534310 -0.01202550944 -0.3368806645 -0.9094148130 -0.3368806645 -0.9094148130 0.03360534310 -0.01202550944
1.233000000 0.03333767098 -0.01233038068 -0.3468560423 -0.9056625486 -0.3468560423 -0.9056625486 0.03333767098 -0.01233038068
1.240000000 0.03306336028 -0.01262929869 -0.3567897868 -0.9018009432 -0.3567897868 -0.9018009432 0.03306336028 -0.01262929869
1.247000000 0.03278254323 -0.01292211895 -0.3666807019 -0.8978304534 -0.3666807019 -0.8978304534 0.03278254323 -0.01292211895
1.254000000 0.03249535520 -0.01320869988 -0.3765275964 -0.8937515492 -0.3765275964 -0.8937515492 0.03249535520 -0.01320869988
1.261000000 0.03220193465 -0.01348890288 -0.3863292840 -0.8895647133 -0.3863292840 -0.8895647133 0.03220193465 -0.01348890288
1.268000000 0.03190242304 -0.01376259243 -0.3960845838 -0.8852704416 -0.3960845838 -0.8852704416 0.03190242304 -0.01376259243
1.275000000 0.03159696480 -0.01402963615 -0.4057923197 -0.8808692425 -0.4057923197 -0.8808692425 0.03159696480 -0.01402963615
1.282000000 0.03128570722 -0.01428990482 -0.4154513214 -0.8763616374 -0.4154513214 -0.8763616374 0.03128570722 -0.01428990482
1.289000000 0.03096880039 -0.01454327252 -0.4250604239 -0.8717481606 -0.4250604239 -0.8717481606 0.03096880039 -0.01454327252
1.296000000 0.03064639717 -0.01478961662 -0.4346184681 -0.8670293588 -0.4346184681 -0.8670293588 0.03064639717 -0.01478961662
1.303000000 0.03031865304 -0.01502881789 -0.4441243004 -0.8622057917 -0.4441243004 -0.8622057917 0.03031865304 -0.01502881789
1.310000000 0.02998572610 -0.01526076051 -0.4535767734 -0.8572780313 -0.4535767734 -0.8572780313 0.02998572610 -0.01526076051
1.317000000 0.02964777695 -0.01548533218 -0.4629747458 -0.8522466623 -0.4629747458 -0.8522466623 0.02964777695 -0.01548533218
1.324000000 0.02930496862 -0.01570242412 -0.4723170823 -0.8471122819 -0.4723170823 -0.8471122819 0.02930496862 -0.01570242412
1.331000000 0.02895746651 -0.01591193118 -0.4816026542 -0.8418754996 -0.4816026542 -0.8418754996 0.02895746651 -0.01591193118
1.338000000 0.02860543830 -0.01611375183 -0.4908303390 -0.8365369375 -0.4908303390 -0.8365369375 0.02860543830 -0.01611375183
1.345000000 0.02824905384 -0.01630778826 -0.4999990213 -0.8310972296 -0.4999990213 -0.8310972296 0.02824905384 -0.01630778826
1.352000000 0.02788848513 -0.01649394642 -0.5091075919 -0.8255570226 -0.5091075919 -0.8255570226 0.02788848513 -0.01649394642
1.359000000 0.02752390619 -0.01667213602 -0.5181549490 -0.8199169751 -0.5181549490 -0.8199169751 0.02752390619 -0.01667213602
1.366000000 0.02715549299 -0.01684227063 -0.5271399975 -0.8141777578 -0.5271399975 -0.8141777578 0.02715549299 -0.01684227063
1.373000000 0.02678342336 -0.01700426770 -0.5360616496 -0.8083400535 -0.5360616496 -0.8083400535 0.02678342336 -0.01700426770
1.380000000 0.02640787693 -0.01715804861 -0.5449188247 -0.8024045569 -0.5449188247 -0.8024045569 0.02640787693 -0.01715804861
1.387000000 0.02602903500 -0.01730353868 -0.5537104499 -0.7963719748 -0.5537104499 -0.7963719748 0.02602903500 -0.01730353868
1.394000000 0.02564708049 -0.01744066723 -0.5624354595 -0.7902430255 -0.5624354595 -0.7902430255 0.02564708049 -0.01744066723
1.401000000 0.02526219785 -0.01756936763 -0.5710927957 -0.7840184392 -0.5710927957 -0.7840184392 0.02526219785 -0.01756936763
1.408000000 0.02487457294 -0.01768957729 -0.5796814086 -0.7776989579 -0.5796814086 -0.7776989579 0.02487457294 -0.01768957729
1.415000000 0.02448439298 -0.01780123773 -0.5882002561 -0.7712853350 -0.5882002561 -0.7712853350 0.02448439298 -0.01780123773
1.422000000 0.02409184642 -0.01790429459 -0.5966483042 -0.7647783354 -0.5966483042 -0.7647783354 0.02409184642 -0.01790429459
1.429000000 0.02369712289 -0.01799869767 -0.6050245272 -0.7581787355 -0.6050245272 -0.7581787355 0.02369712289 -0.01799869767
1.436000000 0.02330041308 -0.01808440092 -0.6133279077 -0.7514873230 -0.6133279077 -0.7514873230 0.02330041308 -0.01808440092
1.443000000 0.02290190866 -0.01816136252 -0.6215574368 -0.7447048971 -0.6215574368 -0.7447048971 0.02290190866 -0.01816136252
1.450000000 0.02250180219 -0.01822954485 -0.6297121141 -0.7378322677 -0.6297121141 -0.7378322677 0.02250180219 -0.01822954485
1.457000000 0.02210028700 -0.01828891454 -0.6377909482 -0.7308702562 -0.6377909482 -0.7308702562 0.02210028700 -0.01828891454
1.464000000 0.02169755716 -0.01833944248 -0.6457929562 -0.7238196948 -0.6457929562 -0.7238196948 0.02169755716 -0.01833944248
1.471000000 0.02129380730 -0.01838110380 -0.6537171643 -0.7166814268 -0.6537171643 -0.7166814268 0.02129380730 -0.01838110380
1.478000000 0.02088923259 -0.01841387795 -0.6615626081 -0.7094563059 -0.6615626081 -0.7094563059 0.02088923259 -0.01841387795
1.485000000 0.02048402861 -0.01843774865 -0.6693283319 -0.7021451971 -0.6693283319 -0.7021451971 0.02048402861 -0.01843774865
1.492000000 0.02007839127 -0.01845270395 -0.6770133897 -0.6947489755 -0.6770133897 -0.6947489755 0.02007839127 -0.01845270395
1.499000000 0.01967251669 -0.01845873618 -0.6846168450 -0.6872685271 -0.6846168450 -0.6872685271 0.01967251669 -0.01845873618
1.506000000 0.01926660114 -0.01845584199 -0.6921377707 -0.6797047481 -0.6921377707 -0.6797047481 0.01926660114 -0.01845584199
1.513000000 0.01886084093 -0.01844402237 -0.6995752496 -0.6720585452 -0.6995752496 -0.6720585452 0.01886084093 -0.01844402237
1.520000000 0.01845543229 -0.01842328261 -0.7069283741 -0.6643308353 -0.7069283741 -0.6643308353 0.01845543229 -0.01842328261
1.527000000 0.01805057134 -0.01839363230 -0.7141962468 -0.6565225453 -0.7141962468 -0.6565225453 0.01805057134 -0.01839363230
1.534000000 0.01764645390 -0.01835508536 -0.7213779803 -0.6486346122 -0.7213779803 -0.6486346122 0.01764645390 -0.01835508536
1.541000000 0.01724327550 -0.01830766003 -0.7284726972 -0.6406679830 -0.7284726972 -0.6406679830 0.01724327550 -0.01830766003
1.548000000 0.01684123121 -0.01825137881 -0.7354795307 -0.6326236144 -0.7354795307 -0.6326236144 0.01684123121 -0.01825137881
1.555000000 0.01644051556 -0.01818626851 -0.7423976242 -0.6245024729 -0.7423976242 -0.6245024729 0.01644051556 -0.01818626851
1.562000000 0.01604132248 -0.01811236022 -0.7492261317 -0.6163055346 -0.7492261317 -0.6163055346 0.01604132248 -0.01811236022
1.569000000 0.01564384516 -0.01802968928 -0.7559642179 -0.6080337849 -0.7559642179 -0.6080337849 0.01564384516 -0.01802968928
1.576000000 0.01524827599 -0.01793829528 -0.7626110581 -0.5996882189 -0.7626110581 -0.5996882189 0.01524827599 -0.01793829528
1.583000000 0.01485480645 -0.01783822202 -0.7691658388 -0.5912698405 -0.7691658388 -0.5912698405 0.01485480645 -0.01783822202
1.590000000 0.01446362703 -0.01772951754 -0.7756277570 -0.5827796632 -0.7756277570 -0.5827796632 0.01446362703 -0.01772951754
1.597000000 0.01407492712 -0.01761223404 -0.7819960211 -0.5742187093 -0.7819960211 -0.5742187093 0.01407492712 -0.01761223404
1.604000000 0.01368889491 -0.01748642786 -0.7882698508 -0.5655880100 -0.7882698508 -0.5655880100 0.01368889491 -0.01748642786
1.611000000 0.01330571735 -0.01735215952 -0.7944484766 -0.5568886053 -0.7944484766 -0.5568886053 0.01330571735 -0.01735215952
1.618000000 0.01292558000 -0.01720949361 -0.8005311410 -0.5481215438 -0.8005311410 -0.5481215438 0.01292558000 -0.01720949361
1.625000000 0.01254866698 -0.01705849879 -0.8065170976 -0.5392878828 -0.8065170976 -0.5392878828 0.01254866698 -0.01705849879
1.632000000 0.01217516085 -0.01689924779 -0.8124056118 -0.5303886879 -0.8124056118 -0.5303886879 0.01217516085 -0.01689924779
1.639000000 0.01180524255 -0.01673181731 -0.8181959606 -0.5214250330 -0.8181959606 -0.5214250330 0.01180524255 -0.01673181731
1.646000000 0.01143909127 -0.01655628805 -0.8238874328 -0.5123980001 -0.8238874328 -0.5123980001 0.01143909127 -0.01655628805
1.653000000 0.01107688443 -0.01637274461 -0.8294793292 -0.5033086793 -0.8294793292 -0.5033086793 0.01107688443 -0.01637274461
1.660000000 0.01071879753 -0.01618127551 -0.8349709626 -0.4941581687 -0.8349709626 -0.4941581687 0.01071879753 -0.01618127551
1.667000000 0.01036500408 -0.01598197311 -0.8403616577 -0.4849475739 -0.8403616577 -0.4849475739 0.01036500408 -0.01598197311
1.674000000 0.01001567555 -0.01577493356 -0.8456507518 -0.4756780084 -0.8456507518 -0.4756780084 0.01001567555 -0.01577493356
1.681000000 0.009670981245 -0.01556025678 -0.8508375940 -0.4663505930 -0.8508375940 -0.4663505930 0.009670981245 -0.01556025678
1.688000000 0.009331088234 -0.01533804640 -0.8559215461 -0.4569664561 -0.8559215461 -0.4569664561 0.009331088234 -0.01533804640
1.695000000 0.008996161280 -0.01510840971 -0.8609019822 -0.4475267330 -0.8609019822 -0.4475267330 0.008996161280 -0.01510840971
1.702000000 0.008666362749 -0.01487145760 -0.8657782892 -0.4380325664 -0.8657782892 -0.4380325664 0.008666362749 -0.01487145760
1.709000000 0.008341852531 -0.01462730453 -0.8705498662 -0.4284851058 -0.8705498662 -0.4284851058 0.008341852531 -0.01462730453
1.716000000 0.008022787968 -0.01437606844 -0.8752161254 -0.4188855075 -0.8752161254 -0.4188855075 0.008022787968 -0.01437606844
1.723000000 0.007709323771 -0.01411787073 -0.8797764917 -0.4092349344 -0.8797764917 -0.4092349344 0.007709323771 -0.01411787073
1.730000000 0.007401611947 -0.01385283619 -0.8842304029 -0.3995345562 -0.8842304029 -0.3995345562 0.007401611947 -0.01385283619
1.737000000 0.007099801726 -0.01358109291 -0.8885773096 -0.3897855487 -0.8885773096 -0.3897855487 0.007099801726 -0.01358109291
1.744000000 0.006804039485 -0.01330277227 -0.8928166757 -0.3799890940 -0.8928166757 -0.3799890940 0.006804039485 -0.01330277227
1.751000000 0.006514468676 -0.01301800884 -0.8969479781 -0.3701463803 -0.8969479781 -0.3701463803 0.006514468676 -0.01301800884
1.758000000 0.006231229762 -0.01272694031 -0.9009707069 -0.3602586019 -0.9009707069 -0.3602586019 0.006231229762 -0.01272694031
1.765000000 0.005954460140 -0.01242970745 -0.9048843653 -0.3503269586 -0.9048843653 -0.3503269586 0.005954460140 -0.01242970745
1.772000000 0.005684294080 -0.01212645404 -0.9086884703 -0.3403526561 -0.9086884703 -0.3403526561 0.005684294080 -0.01212645404
1.779000000 0.005420862656 -0.01181732677 -0.9123825518 -0.3303369054 -0.9123825518 -0.3303369054 0.005420862656 -0.01181732677
1.786000000 0.005164293681 -0.01150247521 -0.9159661534 -0.3202809229 -0.9159661534 -0.3202809229 0.005164293681 -0.01150247521
1.793000000 0.004914711649 -0.01118205169 -0.9194388324 -0.3101859302 -0.9194388324 -0.3101859302 0.004914711649 -0.01118205169
1.800000000 0.004672237669 -0.01085621128 -0.9228001594 -0.3000531540 -0.9228001594 -0.3000531540 0.004672237669 -0.01085621128
1.807000000 0.004436989408 -0.01052511168 -0.9260497188 -0.2898838258 -0.9260497188 -0.2898838258 0.004436989408 -0.01052511168
1.814000000 0.004209081034 -0.01018891313 -0.9291871089 -0.2796791817 -0.9291871089 -0.2796791817 0.004209081034 -0.01018891313
1.821000000 0.003988623156 -0.009847778392 -0.9322119416 -0.2694404626 -0.9322119416 -0.2694404626 0.003988623156 -0.009847778392
1.828000000 0.003775722777 -0.009501872596 -0.9351238425 -0.2591689136 -0.9351238425 -0.2591689136 0.003775722777 -0.009501872596
1.835000000 0.003570483234 -0.009151363216 -0.9379224515 -0.2488657842 -0.9379224515 -0.2488657842 0.003570483234 -0.009151363216
1.842000000 0.003373004150 -0.008796419963 -0.9406074222 -0.2385323280 -0.9406074222 -0.2385323280 0.003373004150 -0.008796419963
1.849000000 0.003183381389 -0.008437214711 -0.9431784221 -0.2281698023 -0.9431784221 -0.2281698023 0.003183381389 -0.008437214711
1.856000000 0.003001707002 -0.008073921409 -0.9456351330 -0.2177794683 -0.9456351330 -0.2177794683 0.003001707002 -0.008073921409
1.863000000 0.002828069187 -0.007706715998 -0.9479772507 -0.2073625910 -0.9479772507 -0.2073625910 0.002828069187 -0.007706715998
1.870000000 0.002662552244 -0.007335776327 -0.9502044850 -0.1969204385 -0.9502044850 -0.1969204385 0.002662552244 -0.007335776327
1.877000000 0.002505236532 -0.006961282063 -0.9523165602 -0.1864542824 -0.9523165602 -0.1864542824 0.002505236532 -0.006961282063
1.884000000 0.002356198434 -0.006583414608 -0.9543132144 -0.1759653973 -0.9543132144 -0.1759653973 0.002356198434 -0.006583414608
1.891000000 0.002215510315 -0.006202357006 -0.9561942005 -0.1654550609 -0.9561942005 -0.1654550609 0.002215510315 -0.006202357006
1.898000000 0.002083240487 -0.005818293860 -0.9579592851 -0.1549245536 -0.9579592851 -0.1549245536 0.002083240487 -0.005818293860
1.905000000 0.001959453177 -0.005431411234 -0.9596082497 -0.1443751583 -0.9596082497 -0.1443751583 0.001959453177 -0.005431411234
1.912000000 0.001844208496 -0.005041896569 -0.9611408898 -0.1338081606 -0.9611408898 -0.1338081606 0.001844208496 -0.005041896569
1.919000000 0.001737562408 -0.004649938589 -0.9625570153 -0.1232248482 -0.9625570153 -0.1232248482 0.001737562408 -0.004649938589
1.926000000 0.001639566702 -0.004255727210 -0.9638564508 -0.1126265110 -0.9638564508 -0.1126265110 0.001639566702 -0.004255727210
1.933000000 0.001550268968 -0.003859453446 -0.9650390351 -0.1020144407 -0.9650390351 -0.1020144407 0.001550268968 -0.003859453446
1.940000000 0.001469712572 -0.003461309317 -0.9661046216 -0.09138993116 -0.9661046216 -0.09138993116 0.001469712572 -0.003461309317
1.947000000 0.001397936637 -0.003061487756 -0.9670530781 -0.08075427747 -0.9670530781 -0.08075427747 0.001397936637 -0.003061487756
1.954000000 0.001334976022 -0.002660182513 -0.9678842870 -0.07010877636 -0.9678842870 -0.07010877636 0.001334976022 -0.002660182513
1.961000000 0.001280861304 -0.002257588062 -0.9685981452 -0.05945472581 -0.9685981452 -0.05945472581 0.001280861304 -0.002257588062
1.968000000 0.001235618765 -0.001853899507 -0.9691945642 -0.04879342491 -0.9691945642 -0.04879342491 0.001235618765 -0.001853899507
1.975000000 0.001199270380 -0.001449312483 -0.9696734700 -0.03812617369 -0.9696734700 -0.03812617369 0.001199270380 -0.001449312483
1.982000000 0.001171833802 -0.001044023066 -0.9700348031 -0.02745427296 -0.9700348031 -0.02745427296 0.001171833802 -0.001044023066
1.989000000 0.001153322356 -0.0006382276722 -0.9702785188 -0.01677902414 -0.9702785188 -0.01677902414 0.001153322356 -0.0006382276722
1.996000000 0.001143745034 -0.0002321229672 -0.9704045869 -0.006101729083 -0.9704045869 -0.006101729083 0.001143745034 -0.0002321229672
2.003000000 0.001143106487 0.0001740942344 -0.9704129916 0.004576310100 -0.9704129916 0.004576310100 0.001143106487 0.0001740942344
2.010000000 0.001151407025 0.0005802270626 -0.9703037320 0.01525379119 -0.9703037320 0.01525379119 0.001151407025 0.0005802270626
2.017000000 0.001168642617 0.0009860786885 -0.9700768216 0.02592941204 -0.9700768216 0.02592941204 0.001168642617 0.0009860786885
2.024000000 0.001194804891 0.001391452420 -0.9697322885 0.03660187076 -0.9697322885 0.03660187076 0.001194804891 0.001391452420
2.031000000 0.001229881140 0.001796151800 -0.9692701755 0.04726986585 -0.9692701755 0.04726986585 0.001229881140 0.001796151800
2.038000000 0.001273854330 0.002199980697 -0.9686905400 0.05793209641 -0.9686905400 0.05793209641 0.001273854330 0.002199980697
2.045000000 0.001326703102 0.002602743407 -0.9679934537 0.06858726229 -0.9679934537 0.06858726229 0.001326703102 0.002602743407
2.052000000 0.001388401790 0.003004244745 -0.9671790032 0.07923406424 -0.9671790032 0.07923406424 0.001388401790 0.003004244745
2.059000000 0.001458920428 0.003404290141 -0.9662472895 0.08987120413 -0.9662472895 0.08987120413 0.001458920428 0.003404290141
2.066000000 0.001538224769 0.003802685735 -0.9651984281 0.1004973851 -0.9651984281 0.1004973851 0.001538224769 0.003802685735
2.073000000 0.001626276297 0.004199238472 -0.9640325492 0.1111113116 -0.9640325492 0.1111113116 0.001626276297 0.004199238472
2.080000000 0.001723032251 0.004593756197 -0.9627497972 0.1217116898 -0.9627497972 0.1217116898 0.001723032251 0.004593756197
2.087000000 0.001828445643 0.004986047745 -0.9613503312 0.1322972276 -0.9613503312 0.1322972276 0.001828445643 0.004986047745
2.094000000 0.001942465283 0.005375923038 -0.9598343248 0.1428666349 -0.9598343248 0.1428666349 0.001942465283 0.005375923038
2.101000000 0.002065035801 0.005763193177 -0.9582019658 0.1534186236 -0.9582019658 0.1534186236 0.002065035801 0.005763193177
2.108000000 0.002196097677 0.006147670531 -0.9564534567 0.1639519078 -0.9564534567 0.1639519078 0.002196097677 0.006147670531
2.115000000 0.002335587271 0.006529168833 -0.9545890140 0.1744652042 -0.9545890140 0.1744652042 0.002335587271 0.006529168833
2.122000000 0.002483436851 0.006907503268 -0.9526088690 0.1849572320 -0.9526088690 0.1849572320 0.002483436851 0.006907503268
2.129000000 0.002639574630 0.007282490562 -0.9505132668 0.1954267132 -0.9505132668 0.1954267132 0.002639574630 0.007282490562
2.136000000 0.002803924796 0.007653949074 -0.9483024673 0.2058723727 -0.9483024673 0.2058723727 0.002803924796 0.007653949074
2.143000000 0.002976407556 0.008021698882 -0.9459767441 0.2162929385 -0.9459767441 0.2162929385 0.002976407556 0.008021698882
2.150000000 0.003156939171 0.008385561875 -0.9435363853 0.2266871419 -0.9435363853 0.2266871419 0.003156939171 0.008385561875
2.157000000 0.003345431997 0.008745361831 -0.9409816932 0.2370537175 -0.9409816932 0.2370537175 0.003345431997 0.008745361831
2.164000000 0.003541794529 0.009100924513 -0.9383129841 0.2473914037 -0.9383129841 0.2473914037 0.003541794529 0.009100924513
2.171000000 0.003745931448 0.009452077745 -0.9355305883 0.2576989423 -0.9355305883 0.2576989423 0.003745931448 0.009452077745
2.178000000 0.003957743662 0.009798651502 -0.9326348501 0.2679750793 -0.9326348501 0.2679750793 0.003957743662 0.009798651502
2.185000000 0.004177128363 0.01014047799 -0.9296261280 0.2782185648 -0.9296261280 0.2782185648 0.004177128363 0.01014047799
2.192000000 0.004403979069 0.01047739173 -0.9265047941 0.2884281528 -0.9265047941 0.2884281528 0.004403979069 0.01047739173
2.199000000 0.004638185683 0.01080922962 -0.9232712346 0.2986026019 -0.9232712346 0.2986026019 0.004638185683 0.01080922962
2.206000000 0.004879634540 0.01113583106 -0.9199258492 0.3087406754 -0.9199258492 0.3087406754 0.004879634540 0.01113583106
2.213000000 0.005128208471 0.01145703797 -0.9164690517 0.3188411409 -0.9164690517 0.3188411409 0.005128208471 0.01145703797
2.220000000 0.005383786855 0.01177269492 -0.9129012694 0.3289027712 -0.9129012694 0.3289027712 0.005383786855 0.01177269492
2.227000000 0.005646245678 0.01208264917 -0.9092229431 0.3389243439 -0.9092229431 0.3389243439 0.005646245678 0.01208264917
2.234000000 0.005915457597 0.01238675075 -0.9054345274 0.3489046419 -0.9054345274 0.3489046419 0.005915457597 0.01238675075
2.241000000 0.006191292000 0.01268485256 -0.9015364901 0.3588424533 -0.9015364901 0.3588424533 0.006191292000 0.01268485256
2.248000000 0.006473615069 0.01297681039 -0.8975293127 0.3687365717 -0.8975293127 0.3687365717 0.006473615069 0.01297681039
2.255000000 0.006762289850 0.01326248306 -0.8934134900 0.3785857964 -0.8934134900 0.3785857964 0.006762289850 0.01326248306
2.262000000 0.007057176315 0.01354173241 -0.8891895298 0.3883889324 -0.8891895298 0.3883889324 0.007057176315 0.01354173241
2.269000000 0.007358131434 0.01381442343 -0.8848579535 0.3981447906 -0.8848579535 0.3981447906 0.007358131434 0.01381442343
2.276000000 0.007665009242 0.01408042428 -0.8804192954 0.4078521880 -0.8804192954 0.4078521880 0.007665009242 0.01408042428
2.283000000 0.007977660914 0.01433960640 -0.8758741028 0.4175099479 -0.8758741028 0.4175099479 0.007977660914 0.01433960640
2.290000000 0.008295934834 0.01459184451 -0.8712229362 0.4271168997 -0.8712229362 0.4271168997 0.008295934834 0.01459184451
2.297000000 0.008619676674 0.01483701675 -0.8664663689 0.4366718795 -0.8664663689 0.4366718795 0.008619676674 0.01483701675
2.304000000 0.008948729463 0.01507500466 -0.8616049869 0.4461737301 -0.8616049869 0.4461737301 0.008948729463 0.01507500466
2.311000000 0.009282933669 0.01530569329 -0.8566393891 0.4556213009 -0.8566393891 0.4556213009 0.009282933669 0.01530569329
2.318000000 0.009622127275 0.01552897122 -0.8515701870 0.4650134484 -0.8515701870 0.4650134484 0.009622127275 0.01552897122
2.325000000 0.009966145859 0.01574473066 -0.8463980046 0.4743490361 -0.8463980046 0.4743490361 0.009966145859 0.01574473066
2.332000000 0.01031482267 0.01595286745 -0.8411234784 0.4836269347 -0.8411234784 0.4836269347 0.01031482267 0.01595286745
2.339000000 0.01066798872 0.01615328113 -0.8357472574 0.4928460222 -0.8357472574 0.4928460222 0.01066798872 0.01615328113
2.346000000 0.01102547285 0.01634587501 -0.8302700027 0.5020051841 -0.8302700027 0.5020051841 0.01102547285 0.01634587501
2.353000000 0.01138710183 0.01653055620 -0.8246923877 0.5111033137 -0.8246923877 0.5111033137 0.01138710183 0.01653055620
2.360000000 0.01175270043 0.01670723561 -0.8190150981 0.5201393118 -0.8190150981 0.5201393118 0.01175270043 0.01670723561
2.367000000 0.01212209152 0.01687582809 -0.8132388313 0.5291120871 -0.8132388313 0.5291120871 0.01212209152 0.01687582809
2.374000000 0.01249509614 0.01703625239 -0.8073642968 0.5380205566 -0.8073642968 0.5380205566 0.01249509614 0.01703625239
2.381000000 0.01287153360 0.01718843120 -0.8013922158 0.5468636450 -0.8013922158 0.5468636450 0.01287153360 0.01718843120
2.388000000 0.01325122157 0.01733229126 -0.7953233214 0.5556402856 -0.7953233214 0.5556402856 0.01325122157 0.01733229126
2.395000000 0.01363397614 0.01746776330 -0.7891583582 0.5643494200 -0.7891583582 0.5643494200 0.01363397614 0.01746776330
2.402000000 0.01401961195 0.01759478215 -0.7828980823 0.5729899982 -0.7828980823 0.5729899982 0.01401961195 0.01759478215
2.409000000 0.01440794226 0.01771328673 -0.7765432613 0.5815609791 -0.7765432613 0.5815609791 0.01440794226 0.01771328673
2.416000000 0.01479877904 0.01782322008 -0.7700946740 0.5900613302 -0.7700946740 0.5900613302 0.01479877904 0.01782322008
2.423000000 0.01519193305 0.01792452941 -0.7635531105 0.5984900277 -0.7635531105 0.5984900277 0.01519193305 0.01792452941
2.430000000 0.01558721397 0.01801716608 -0.7569193721 0.6068460572 -0.7569193721 0.6068460572 0.01558721397 0.01801716608
2.437000000 0.01598443046 0.01810108570 -0.7501942708 0.6151284132 -0.7501942708 0.6151284132 0.01598443046 0.01810108570
2.444000000 0.01638339024 0.01817624806 -0.7433786297 0.6233360995 -0.7433786297 0.6233360995 0.01638339024 0.01817624806
2.451000000 0.01678390024 0.01824261721 -0.7364732826 0.6314681290 -0.7364732826 0.6314681290 0.01678390024 0.01824261721
2.458000000 0.01718576662 0.01830016147 -0.7294790741 0.6395235246 -0.7294790741 0.6395235246 0.01718576662 0.01830016147
2.465000000 0.01758879494 0.01834885341 -0.7223968591 0.6475013182 -0.7223968591 0.6475013182 0.01758879494 0.01834885341
2.472000000 0.01799279019 0.01838866991 -0.7152275031 0.6554005518 -0.7152275031 0.6554005518 0.01799279019 0.01838866991
2.479000000 0.01839755691 0.01841959211 -0.7079718819 0.6632202770 -0.7079718819 0.6632202770 0.01839755691 0.01841959211
2.486000000 0.01880289931 0.01844160550 -0.7006308815 0.6709595554 -0.7006308815 0.6709595554 0.01880289931 0.01844160550
2.493000000 0.01920862131 0.01845469986 -0.6932053980 0.6786174585 -0.6932053980 0.6786174585 0.01920862131 0.01845469986
2.500000000 0.01961452669 0.01845886926 -0.6856963373 0.6861930681 -0.6856963373 0.6861930681 0.01961452669 0.01845886926
2.507000000 0.02002041913 0.01845411213 -0.6781046154 0.6936854760 -0.6781046154 0.6936854760 0.02002041913 0.01845411213
2.514000000 0.02042610238 0.01844043119 -0.6704311580 0.7010937844 -0.6704311580 0.7010937844 0.02042610238 0.01844043119
2.521000000 0.02083138027 0.01841783348 -0.6626769001 0.7084171061 -0.6626769001 0.7084171061 0.02083138027 0.01841783348
2.528000000 0.02123605685 0.01838633036 -0.6548427867 0.7156545641 -0.6548427867 0.7156545641 0.02123605685 0.01838633036
2.535000000 0.02163993651 0.01834593747 -0.6469297718 0.7228052923 -0.6469297718 0.7228052923 0.02163993651 0.01834593747
2.542000000 0.02204282400 0.01829667478 -0.6389388186 0.7298684350 -0.6389388186 0.7298684350 0.02204282400 0.01829667478
2.549000000 0.02244452460 0.01823856651 -0.6308708998 0.7368431477 -0.6308708998 0.7368431477 0.02244452460 0.01823856651
2.556000000 0.02284484418 0.01817164118 -0.6227269967 0.7437285965 -0.6227269967 0.7437285965 0.02284484418 0.01817164118
2.563000000 0.02324358927 0.01809593156 -0.6145080997 0.7505239585 -0.6145080997 0.7505239585 0.02324358927 0.01809593156
2.570000000 0.02364056721 0.01801147465 -0.6062152078 0.7572284221 -0.6062152078 0.7572284221 0.02364056721 0.01801147465
2.577000000 0.02403558619 0.01791831169 -0.5978493288 0.7638411865 -0.5978493288 0.7638411865 0.02403558619 0.01791831169
2.584000000 0.02442845538 0.01781648810 -0.5894114788 0.7703614625 -0.5894114788 0.7703614625 0.02442845538 0.01781648810
2.591000000 0.02481898500 0.01770605351 -0.5809026824 0.7767884721 -0.5809026824 0.7767884721 0.02481898500 0.01770605351
2.598000000 0.02520698641 0.01758706169 -0.5723239724 0.7831214486 -0.5723239724 0.7831214486 0.02520698641 0.01758706169
2.605000000 0.02559227221 0.01745957052 -0.5636763897 0.7893596370 -0.5636763897 0.7893596370 0.02559227221 0.01745957052
2.612000000 0.02597465635 0.01732364200 -0.5549609831 0.7955022937 -0.5549609831 0.7955022937 0.02597465635 0.01732364200
2.619000000 0.02635395417 0.01717934220 -0.5461788094 0.8015486868 -0.5461788094 0.8015486868 0.02635395417 0.01717934220
2.626000000 0.02672998252 0.01702674122 -0.5373309330 0.8074980963 -0.5373309330 0.8074980963 0.02672998252 0.01702674122
2.633000000 0.02710255988 0.01686591316 -0.5284184259 0.8133498137 -0.5284184259 0.8133498137 0.02710255988 0.01686591316
2.640000000 0.02747150636 0.01669693609 -0.5194423676 0.8191031427 -0.5194423676 0.8191031427 0.02747150636 0.01669693609
2.647000000 0.02783664387 0.01651989200 -0.5104038449 0.8247573987 -0.5104038449 0.8247573987 0.02783664387 0.01651989200
2.654000000 0.02819779617 0.01633486678 -0.5013039517 0.8303119093 -0.5013039517 0.8303119093 0.02819779617 0.01633486678
2.661000000 0.02855478895 0.01614195014 -0.4921437891 0.8357660140 -0.4921437891 0.8357660140 0.02855478895 0.01614195014
2.668000000 0.02890744994 0.01594123562 -0.4829244651 0.8411190647 -0.4829244651 0.8411190647 0.02890744994 0.01594123562
2.675000000 0.02925560895 0.01573282049 -0.4736470942 0.8463704253 -0.4736470942 0.8463704253 0.02925560895 0.01573282049
2.682000000 0.02959909800 0.01551680575 -0.4643127980 0.8515194721 -0.4643127980 0.8515194721 0.02959909800 0.01551680575
2.689000000 0.02993775136 0.01529329604 -0.4549227042 0.8565655939 -0.4549227042 0.8565655939 0.02993775136 0.01529329604
2.696000000 0.03027140564 0.01506239961 -0.4454779473 0.8615081916 -0.4454779473 0.8615081916 0.03027140564 0.01506239961
2.703000000 0.03059989991 0.01482422829 -0.4359796676 0.8663466788 -0.4359796676 0.8663466788 0.03059989991 0.01482422829
2.710000000 0.03092307570 0.01457889737 -0.4264290118 0.8710804816 -0.4264290118 0.8710804816 0.03092307570 0.01457889737
2.717000000 0.03124077715 0.01432652561 -0.4168271325 0.8757090386 -0.4168271325 0.8757090386 0.03124077715 0.01432652561
2.724000000 0.03155285102 0.01406723516 -0.4071751880 0.8802318012 -0.4071751880 0.8802318012 0.03155285102 0.01406723516
2.731000000 0.03185914683 0.01380115147 -0.3974743426 0.8846482334 -0.3974743426 0.8846482334 0.03185914683 0.01380115147
2.738000000 0.03215951686 0.01352840329 -0.3877257659 0.8889578119 -0.3877257659 0.8889578119 0.03215951686 0.01352840329
2.745000000 0.03245381630 0.01324912256 -0.3779306328 0.8931600264 -0.3779306328 0.8931600264 0.03245381630 0.01324912256
2.752000000 0.03274190324 0.01296344435 -0.3680901240 0.8972543793 -0.3680901240 0.8972543793 0.03274190324 0.01296344435
2.759000000 0.03302363879 0.01267150682 -0.3582054247 0.9012403859 -0.3582054247 0.9012403859 0.03302363879 0.01267150682
2.766000000 0.03329888713 0.01237345114 -0.3482777256 0.9051175746 -0.3482777256 0.9051175746 0.03329888713 0.01237345114
2.773000000 0.03356751559 0.01206942140 -0.3383082220 0.9088854866 -0.3383082220 0.9088854866 0.03356751559 0.01206942140
2.780000000 0.03382939468 0.01175956459 -0.3282981140 0.9125436763 -0.3282981140 0.9125436763 0.03382939468 0.01175956459
2.787000000 0.03408439817 0.01144403047 -0.3182486064 0.9160917111 -0.3182486064 0.9160917111 0.03408439817 0.01144403047
2.794000000 0.03433240316 0.01112297154 -0.3081609082 0.9195291716 -0.3081609082 0.9195291716 0.03433240316 0.01112297154
2.801000000 0.03457329014 0.01079654296 -0.2980362329 0.9228556516 -0.2980362329 0.9228556516 0.03457329014 0.01079654296
2.808000000 0.03480694301 0.01046490246 -0.2878757980 0.9260707580 -0.2878757980 0.9260707580 0.03480694301 0.01046490246
2.815000000 0.03503324920 0.01012821027 -0.2776808254 0.9291741109 -0.2776808254 0.9291741109 0.03503324920 0.01012821027
2.822000000 0.03525209964 0.009786629063 -0.2674525403 0.9321653439 -0.2674525403 0.9321653439 0.03525209964 0.009786629063
2.829000000 0.03546338891 0.009440323836 -0.2571921722 0.9350441037 -0.2571921722 0.9350441037 0.03546338891 0.009440323836
2.836000000 0.03566701518 0.009089461868 -0.2469009539 0.9378100506 -0.2469009539 0.9378100506 0.03566701518 0.009089461868
2.843000000 0.03586288037 0.008734212621 -0.2365801217 0.9404628579 -0.2365801217 0.9404628579 0.03586288037 0.008734212621
2.850000000 0.03605089012 0.008374747664 -0.2262309153 0.9430022127 -0.2262309153 0.9430022127 0.03605089012 0.008374747664
2.857000000 0.03623095385 0.008011240586 -0.2158545775 0.9454278153 -0.2158545775 0.9454278153 0.03623095385 0.008011240586
2.864000000 0.03640298483 0.007643866920 -0.2054523542 0.9477393797 -0.2054523542 0.9477393797 0.03640298483 0.007643866920
2.871000000 0.03656690019 0.007272804051 -0.1950254943 0.9499366331 -0.1950254943 0.9499366331 0.03656690019 0.007272804051
2.878000000 0.03672262098 0.006898231135 -0.1845752492 0.9520193164 -0.1845752492 0.9520193164 0.03672262098 0.006898231135
2.885000000 0.03687007220 0.006520329011 -0.1741028730 0.9539871841 -0.1741028730 0.9539871841 0.03687007220 0.006520329011
2.892000000 0.03700918282 0.006139280118 -0.1636096225 0.9558400042 -0.1636096225 0.9558400042 0.03700918282 0.006139280118
2.899000000 0.03713988584 0.005755268400 -0.1530967566 0.9575775582 -0.1530967566 0.9575775582 0.03713988584 0.005755268400
2.906000000 0.03726211833 0.005368479226 -0.1425655365 0.9591996414 -0.1425655365 0.9591996414 0.03726211833 0.005368479226
2.913000000 0.03737582142 0.004979099294 -0.1320172254 0.9607060627 -0.1320172254 0.9607060627 0.03737582142 0.004979099294
2.920000000 0.03748094035 0.004587316547 -0.1214530883 0.9620966445 -0.1214530883 0.9620966445 0.03748094035 0.004587316547
2.927000000 0.03757742449 0.004193320078 -0.1108743922 0.9633712229 -0.1108743922 0.9633712229 0.03757742449 0.004193320078
2.934000000 0.03766522739 0.003797300044 -0.1002824056 0.9645296479 -0.1002824056 0.9645296479 0.03766522739 0.003797300044
2.941000000 0.03774430676 0.003399447569 -0.08967839851 0.9655717829 -0.08967839851 0.9655717829 0.03774430676 0.003399447569
2.948000000 0.03781462453 0.002999954659 -0.07906364223 0.9664975052 -0.07906364223 0.9664975052 0.03781462453 0.002999954659
2.955000000 0.03787614683 0.002599014105 -0.06843940930 0.9673067058 -0.06843940930 0.9673067058 0.03787614683 0.002599014105
2.962000000 0.03792884405 0.002196819391 -0.05780697332 0.9679992893 -0.05780697332 0.9679992893 0.03792884405 0.002196819391
2.969000000 0.03797269080 0.001793564604 -0.04716760879 0.9685751743 -0.04716760879 0.9685751743 0.03797269080 0.001793564604
2.976000000 0.03800766598 0.001389444340 -0.03652259099 0.9690342929 -0.03652259099 0.9690342929 0.03800766598 0.001389444340
2.983000000 0.03803375274 0.0009846536064 -0.02587319582 0.9693765909 -0.02587319582 0.9693765909 0.03803375274 0.0009846536064
2.990000000 0.03805093853 0.0005793877353 -0.01522069967 0.9696020282 -0.01522069967 0.9696020282 0.03805093853 0.0005793877353
2.997000000 0.03805921506 0.0001738422854 -0.004566379301 0.9697105782 -0.004566379301 0.9697105782 0.03805921506 0.0001738422854
3.004000000 0.03805857836 -0.0002317870507 0.006088488361 0.9697022281 0.006088488361 0.9697022281 0.03805857836 -0.0002317870507
3.011000000 0.03804902873 -0.0006373045399 0.01674262631 0.9695769788 0.01674262631 0.9695769788 0.03804902873 -0.0006373045399
3.018000000 0.03803057077 -0.001042514503 0.02739475761 0.9693348452 0.02739475761 0.9693348452 0.03803057077 -0.001042514503
3.025000000 0.03800321337 -0.001447221407 0.03804360558 0.9689758557 0.03804360558 0.9689758557 0.03800321337 -0.001447221407
3.032000000 0.03796696969 -0.001851229963 0.04868789388 0.9685000526 0.04868789388 0.9685000526 0.03796696969 -0.001851229963
3.039000000 0.03792185719 -0.002254345214 0.05932634668 0.9679074919 0.05932634668 0.9679074919 0.03792185719 -0.002254345214
3.046000000 0.03786789760 -0.002656372632 0.06995768881 0.9671982434 0.06995768881 0.9671982434 0.03786789760 -0.002656372632
3.053000000 0.03780511689 -0.003057118211 0.08058064588 0.9663723907 0.08058064588 0.9663723907 0.03780511689 -0.003057118211
3.060000000 0.03773354529 -0.003456388559 0.09119394445 0.9654300310 0.09119394445 0.9654300310 0.03773354529 -0.003456388559
3.067000000 0.03765321727 -0.003853990992 0.1017963121 0.9643712753 0.1017963121 0.9643712753 0.03765321727 -0.003853990992
3.074000000 0.03756417151 -0.004249733626 0.1123864778 0.9631962483 0.1123864778 0.9631962483 0.03756417151 -0.004249733626
3.081000000 0.03746645088 -0.004643425467 0.1229631717 0.9619050885 0.1229631717 0.9619050885 0.03746645088 -0.004643425467
3.088000000 0.03736010245 -0.005034876506 0.1335251254 0.9604979479 0.1335251254 0.9604979479 0.03736010245 -0.005034876506
3.095000000 0.03724517743 -0.005423897808 0.1440710724 0.9589749923 0.1440710724 0.9589749923 0.03724517743 -0.005423897808
3.102000000 0.03712173116 -0.005810301604 0.1545997478 0.9573364012 0.1545997478 0.9573364012 0.03712173116 -0.005810301604
3.109000000 0.03698982310 -0.006193901377 0.1651098886 0.9555823677 0.1651098886 0.9555823677 0.03698982310 -0.006193901377
3.116000000 0.03684951677 -0.006574511960 0.1756002341 0.9537130986 0.1756002341 0.9537130986 0.03684951677 -0.006574511960
3.123000000 0.03670087975 -0.006951949616 0.1860695256 0.9517288141 0.1860695256 0.9517288141 0.03670087975 -0.006951949616
3.130000000 0.03654398362 -0.007326032130 0.1965165067 0.9496297483 0.1965165067 0.9496297483 0.03654398362 -0.007326032130
3.137000000 0.03637890396 -0.007696578899 0.2069399237 0.9474161486 0.2069399237 0.9474161486 0.03637890396 -0.007696578899
3.144000000 0.03620572028 -0.008063411013 0.2173385254 0.9450882761 0.2173385254 0.9450882761 0.03620572028 -0.008063411013
3.151000000 0.03602451601 -0.008426351347 0.2277110635 0.9426464053 0.2277110635 0.9426464053 0.03602451601 -0.008426351347
3.158000000 0.03583537842 -0.008785224642 0.2380562924 0.9400908243 0.2380562924 0.9400908243 0.03583537842 -0.008785224642
3.165000000 0.03563839864 -0.009139857591 0.2483729699 0.9374218347 0.2483729699 0.9374218347 0.03563839864 -0.009139857591
3.172000000 0.03543367155 -0.009490078921 0.2586598567 0.9346397515 0.2586598567 0.9346397515 0.03543367155 -0.009490078921
3.179000000 0.03522129580 -0.009835719478 0.2689157169 0.9317449029 0.2689157169 0.9317449029 0.03522129580 -0.009835719478
3.186000000 0.03500137371 -0.01017661230 0.2791393182 0.9287376309 0.2791393182 0.9287376309 0.03500137371 -0.01017661230
3.193000000 0.03477401124 -0.01051259272 0.2893294318 0.9256182904 0.2893294318 0.9256182904 0.03477401124 -0.01051259272
3.200000000 0.03453931795 -0.01084349842 0.2994848329 0.9223872500 0.2994848329 0.9223872500 0.03453931795 -0.01084349842
3.207000000 0.03429740692 -0.01116916950 0.3096043002 0.9190448912 0.3096043002 0.9190448912 0.03429740692 -0.01116916950
3.214000000 0.03404839475 -0.01148944861 0.3196866168 0.9155916092 0.3196866168 0.9155916092 0.03404839475 -0.01148944861
3.221000000 0.03379240143 -0.01180418096 0.3297305698 0.9120278120 0.3297305698 0.9120278120 0.03379240143 -0.01180418096
3.228000000 0.03352955034 -0.01211321444 0.3397349508 0.9083539209 0.3397349508 0.9083539209 0.03352955034 -0.01211321444
3.235000000 0.03325996818 -0.01241639967 0.3496985557 0.9045703703 0.3496985557 0.9045703703 0.03325996818 -0.01241639967
3.242000000 0.03298378489 -0.01271359009 0.3596201851 0.9006776078 0.3596201851 0.9006776078 0.03298378489 -0.01271359009
3.249000000 0.03270113361 -0.01300464200 0.3694986442 0.8966760940 0.3694986442 0.8966760940 0.03270113361 -0.01300464200
3.256000000 0.03241215060 -0.01328941467 0.3793327433 0.8925663024 0.3793327433 0.8925663024 0.03241215060 -0.01328941467
3.263000000 0.03211697518 -0.01356777038 0.3891212975 0.8883487194 0.3891212975 0.8883487194 0.03211697518 -0.01356777038
3.270000000 0.03181574967 -0.01383957449 0.3988631273 0.8840238445 0.3988631273 0.8840238445 0.03181574967 -0.01383957449
3.277000000 0.03150861932 -0.01410469552 0.4085570584 0.8795921899 0.4085570584 0.8795921899 0.03150861932 -0.01410469552
3.284000000 0.03119573223 -0.01436300520 0.4182019218 0.8750542808 0.4182019218 0.8750542808 0.03119573223 -0.01436300520
3.291000000 0.03087723929 -0.01461437852 0.4277965543 0.8704106547 0.4277965543 0.8704106547 0.03087723929 -0.01461437852
3.298000000 0.03055329411 -0.01485869383 0.4373397982 0.8656618624 0.4373397982 0.8656618624 0.03055329411 -0.01485869383
3.305000000 0.03022405294 -0.01509583287 0.4468305018 0.8608084668 0.4468305018 0.8608084668 0.03022405294 -0.01509583287
3.312000000 0.02988967459 -0.01532568081 0.4562675194 0.8558510437 0.4562675194 0.8558510437 0.02988967459 -0.01532568081
3.319000000 0.02955032036 -0.01554812635 0.4656497114 0.8507901814 0.4656497114 0.8507901814 0.02955032036 -0.01554812635
3.326000000 0.02920615397 -0.01576306176 0.4749759443 0.8456264806 0.4749759443 0.8456264806 0.02920615397 -0.01576306176
3.333000000 0.02885734148 -0.01597038289 0.4842450913 0.8403605544 0.4842450913 0.8403605544 0.02885734148 -0.01597038289
3.340000000 0.02850405120 -0.01616998930 0.4934560318 0.8349930282 0.4934560318 0.8349930282 0.02850405120 -0.01616998930
3.347000000 0.02814645360 -0.01636178423 0.5026076522 0.8295245398 0.5026076522 0.8295245398 0.02814645360 -0.01636178423
3.354000000 0.02778472127 -0.01654567470 0.5116988454 0.8239557392 0.5116988454 0.8239557392 0.02778472127 -0.01654567470
3.361000000 0.02741902878 -0.01672157153 0.5207285114 0.8182872884 0.5207285114 0.8182872884 0.02741902878 -0.01672157153
3.368000000 0.02704955266 -0.01688938938 0.5296955574 0.8125198618 0.5296955574 0.8125198618 0.02704955266 -0.01688938938
3.375000000 0.02667647126 -0.01704904683 0.5385988974 0.8066541454 0.5385988974 0.8066541454 0.02667647126 -0.01704904683
3.382000000 0.02629996468 -0.01720046637 0.5474374532 0.8006908375 0.5474374532 0.8006908375 0.02629996468 -0.01720046637
3.389000000 0.02592021471 -0.01734357447 0.5562101537 0.7946306481 0.5562101537 0.7946306481 0.02592021471 -0.01734357447
3.396000000 0.02553740471 -0.01747830160 0.5649159356 0.7884742989 0.5649159356 0.7884742989 0.02553740471 -0.01747830160
3.403000000 0.02515171954 -0.01760458228 0.5735537434 0.7822225236 0.5735537434 0.7822225236 0.02515171954 -0.01760458228
3.410000000 0.02476334546 -0.01772235510 0.5821225293 0.7758760673 0.5821225293 0.7758760673 0.02476334546 -0.01772235510
3.417000000 0.02437247004 -0.01783156274 0.5906212536 0.7694356867 0.5906212536 0.7694356867 0.02437247004 -0.01783156274
3.424000000 0.02397928209 -0.01793215203 0.5990488845 0.7629021502 0.5990488845 0.7629021502 0.02397928209 -0.01793215203
3.431000000 0.02358397155 -0.01802407396 0.6074043988 0.7562762372 0.6074043988 0.7562762372 0.02358397155 -0.01802407396
3.438000000 0.02318672940 -0.01810728368 0.6156867815 0.7495587389 0.6156867815 0.7495587389 0.02318672940 -0.01810728368
3.445000000 0.02278774756 -0.01818174057 0.6238950261 0.7427504574 0.6238950261 0.7427504574 0.02278774756 -0.01818174057
3.452000000 0.02238721884 -0.01824740823 0.6320281347 0.7358522060 0.6320281347 0.7358522060 0.02238721884 -0.01824740823
3.459000000 0.02198533678 -0.01830425448 0.6400851183 0.7288648091 0.6400851183 0.7288648091 0.02198533678 -0.01830425448
3.466000000 0.02158229561 -0.01835225145 0.6480649968 0.7217891022 0.6480649968 0.7217891022 0.02158229561 -0.01835225145
3.473000000 0.02117829015 -0.01839137549 0.6559667988 0.7146259314 0.6559667988 0.7146259314 0.02117829015 -0.01839137549
3.480000000 0.02077351567 -0.01842160727 0.6637895625 0.7073761539 0.6637895625 0.7073761539 0.02077351567 -0.01842160727
3.487000000 0.02036816788 -0.01844293175 0.6715323350 0.7000406374 0.6715323350 0.7000406374 0.02036816788 -0.01844293175
3.494000000 0.01996244273 -0.01845533819 0.6791941730 0.6926202601 0.6791941730 0.6926202601 0.01996244273 -0.01845533819
3.501000000 0.01955653642 -0.01845882016 0.6867741426 0.6851159111 0.6867741426 0.6851159111 0.01955653642 -0.01845882016
3.508000000 0.01915064522 -0.01845337557 0.6942713195 0.6775284894 0.6942713195 0.6775284894 0.01915064522 -0.01845337557
3.515000000 0.01874496544 -0.01843900661 0.7016847893 0.6698589048 0.7016847893 0.6698589048 0.01874496544 -0.01843900661
3.522000000 0.01833969328 -0.01841571980 0.7090136473 0.6621080769 0.7090136473 0.6621080769 0.01833969328 -0.01841571980
3.529000000 0.01793502478 -0.01838352599 0.7162569989 0.6542769357 0.7162569989 0.6542769357 0.01793502478 -0.01838352599
3.536000000 0.01753115571 -0.01834244032 0.7234139596 0.6463664210 0.7234139596 0.6463664210 0.01753115571 -0.01834244032
3.543000000 0.01712828146 -0.01829248225 0.7304836550 0.6383774824 0.7304836550 0.6383774824 0.01712828146 -0.01829248225
3.550000000 0.01672659695 -0.01823367551 0.7374652211 0.6303110797 0.7374652211 0.6303110797 0.01672659695 -0.01823367551
3.557000000 0.01632629656 -0.01816604815 0.7443578045 0.6221681820 0.7443578045 0.6221681820 0.01632629656 -0.01816604815
3.564000000 0.01592757402 -0.01808963245 0.7511605621 0.6139497680 0.7511605621 0.6139497680 0.01592757402 -0.01808963245
3.571000000 0.01553062229 -0.01800446498 0.7578726617 0.6056568260 0.7578726617 0.6056568260 0.01553062229 -0.01800446498
3.578000000 0.01513563353 -0.01791058654 0.7644932818 0.5972903536 0.7644932818 0.5972903536 0.01513563353 -0.01791058654
3.585000000 0.01474279892 -0.01780804213 0.7710216117 0.5888513575 0.7710216117 0.5888513575 0.01474279892 -0.01780804213
3.592000000 0.01435230865 -0.01769688099 0.7774568519 0.5803408536 0.7774568519 0.5803408536 0.01435230865 -0.01769688099
3.599000000 0.01396435178 -0.01757715651 0.7837982139 0.5717598668 0.7837982139 0.5717598668 0.01396435178 -0.01757715651
3.606000000 0.01357911618 -0.01744892622 0.7900449205 0.5631094309 0.7900449205 0.5631094309 0.01357911618 -0.01744892622
3.613000000 0.01319678838 -0.01731225180 0.7961962056 0.5543905882 0.7961962056 0.5543905882 0.01319678838 -0.01731225180
3.620000000 0.01281755354 -0.01716719902 0.8022513148 0.5456043901 0.8022513148 0.5456043901 0.01281755354 -0.01716719902
3.627000000 0.01244159536 -0.01701383770 0.8082095052 0.5367518960 0.8082095052 0.5367518960 0.01244159536 -0.01701383770
3.634000000 0.01206909593 -0.01685224170 0.8140700454 0.5278341740 0.8140700454 0.5278341740 0.01206909593 -0.01685224170
3.641000000 0.01170023571 -0.01668248887 0.8198322157 0.5188523003 0.8198322157 0.5188523003 0.01170023571 -0.01668248887
3.648000000 0.01133519340 -0.01650466104 0.8254953085 0.5098073593 0.8254953085 0.5098073593 0.01133519340 -0.01650466104
3.655000000 0.01097414586 -0.01631884393 0.8310586280 0.5007004434 0.8310586280 0.5007004434 0.01097414586 -0.01631884393
3.662000000 0.01061726804 -0.01612512715 0.8365214902 0.4915326527 0.8365214902 0.4915326527 0.01061726804 -0.01612512715
3.669000000 0.01026473288 -0.01592360416 0.8418832236 0.4823050952 0.8418832236 0.4823050952 0.01026473288 -0.01592360416
3.676000000 0.009916711235 -0.01571437219 0.8471431687 0.4730188864 0.8471431687 0.4730188864 0.009916711235 -0.01571437219
3.683000000 0.009573371779 -0.01549753221 0.8523006783 0.4636751495 0.8523006783 0.4636751495 0.009573371779 -0.01549753221
3.690000000 0.009234880932 -0.01527318892 0.8573551178 0.4542750146 0.8573551178 0.4542750146 0.009234880932 -0.01527318892
3.697000000 0.008901402781 -0.01504145064 0.8623058647 0.4448196193 0.8623058647 0.4448196193 0.008901402781 -0.01504145064
3.704000000 0.008573098990 -0.01480242928 0.8671523096 0.4353101083 0.8671523096 0.4353101083 0.008573098990 -0.01480242928
3.711000000 0.008250128732 -0.01455624030 0.8718938552 0.4257476329 0.8718938552 0.4257476329 0.008250128732 -0.01455624030
3.718000000 0.007932648604 -0.01430300264 0.8765299175 0.4161333514 0.8765299175 0.4161333514 0.007932648604 -0.01430300264
3.725000000 0.007620812551 -0.01404283867 0.8810599248 0.4064684286 0.8810599248 0.4064684286 0.007620812551 -0.01404283867
3.732000000 0.007314771796 -0.01377587413 0.8854833188 0.3967540361 0.8854833188 0.3967540361 0.007314771796 -0.01377587413
3.739000000 0.007014674759 -0.01350223806 0.8897995538 0.3869913513 0.8897995538 0.3869913513 0.007014674759 -0.01350223806
3.746000000 0.006720666990 -0.01322206276 0.8940080973 0.3771815583 0.8940080973 0.3771815583 0.006720666990 -0.01322206276
3.753000000 0.006432891094 -0.01293548368 0.8981084301 0.3673258469 0.8981084301 0.3673258469 0.006432891094 -0.01293548368
3.760000000 0.006151486664 -0.01264263941 0.9021000460 0.3574254129 0.9021000460 0.3574254129 0.006151486664 -0.01264263941
3.767000000 0.005876590212 -0.01234367160 0.9059824522 0.3474814580 0.9059824522 0.3474814580 0.005876590212 -0.01234367160
3.774000000 0.005608335100 -0.01203872485 0.9097551692 0.3374951893 0.9097551692 0.3374951893 0.005608335100 -0.01203872485
3.781000000 0.005346851477 -0.01172794668 0.9134177310 0.3274678195 0.9134177310 0.3274678195 0.005346851477 -0.01172794668
3.788000000 0.005092266215 -0.01141148747 0.9169696851 0.3174005664 0.9169696851 0.3174005664 0.005092266215 -0.01141148747
3.795000000 0.004844702847 -0.01108950033 0.9204105924 0.3072946530 0.9204105924 0.3072946530 0.004844702847 -0.01108950033
3.802000000 0.004604281503 -0.01076214109 0.9237400276 0.2971513075 0.9237400276 0.2971513075 0.004604281503 -0.01076214109
3.809000000 0.004371118857 -0.01042956818 0.9269575791 0.2869717627 0.9269575791 0.2869717627 0.004371118857 -0.01042956818
3.816000000 0.004145328066 -0.01009194258 0.9300628489 0.2767572561 0.9300628489 0.2767572561 0.004145328066 -0.01009194258
3.823000000 0.003927018715 -0.009749427726 0.9330554529 0.2665090297 0.9330554529 0.2665090297 0.003927018715 -0.009749427726
3.830000000 0.003716296763 -0.009402189432 0.9359350209 0.2562283301 0.9359350209 0.2562283301 0.003716296763 -0.009402189432
3.837000000 0.003513264492 -0.009050395817 0.9387011965 0.2459164078 0.9387011965 0.2459164078 0.003513264492 -0.009050395817
3.844000000 0.003318020456 -0.008694217220 0.9413536374 0.2355745175 0.9413536374 0.2355745175 0.003318020456 -0.008694217220
3.851000000 0.003130659433 -0.008333826115 0.9438920152 0.2252039177 0.9438920152 0.2252039177 0.003130659433 -0.008333826115
3.858000000 0.002951272379 -0.007969397030 0.9463160156 0.2148058708 0.9463160156 0.2148058708 0.002951272379 -0.007969397030
3.865000000 0.002779946383 -0.007601106458 0.9486253384 0.2043816424 0.9486253384 0.2043816424 0.002779946383 -0.007601106458
3.872000000 0.002616764622 -0.007229132778 0.9508196977 0.1939325018 0.9508196977 0.1939325018 0.002616764622 -0.007229132778
3.879000000 0.002461806324 -0.006853656161 0.9528988215 0.1834597215 0.9528988215 0.1834597215 0.002461806324 -0.006853656161
3.886000000 0.002315146727 -0.006474858488 0.9548624524 0.1729645770 0.9548624524 0.1729645770 0.002315146727 -0.006474858488
3.893000000 0.002176857040 -0.006092923257 0.9567103469 0.1624483467 0.9567103469 0.1624483467 0.002176857040 -0.006092923257
3.900000000 0.002047004415 -0.005708035496 0.9584422761 0.1519123118 0.9584422761 0.1519123118 0.002047004415 -0.005708035496
3.907000000 0.001925651903 -0.005320381675 0.9600580253 0.1413577560 0.9600580253 0.1413577560 0.001925651903 -0.005320381675
3.914000000 0.001812858435 -0.004930149608 0.9615573942 0.1307859655 0.9615573942 0.1307859655 0.001812858435 -0.004930149608
3.921000000 0.001708678783 -0.004537528371 0.9629401971 0.1201982285 0.9629401971 0.1201982285 0.001708678783 -0.004537528371
3.928000000 0.001613163540 -0.004142708202 0.9642062623 0.1095958357 0.9642062623 0.1095958357 0.001613163540 -0.004142708202
3.935000000 0.001526359091 -0.003745880413 0.9653554330 0.09898007928 0.9653554330 0.09898007928 0.001526359091 -0.003745880413
3.942000000 0.001448307592 -0.003347237293 0.9663875666 0.08835225344 0.9663875666 0.08835225344 0.001448307592 -0.003347237293
3.949000000 0.001379046950 -0.002946972019 0.9673025352 0.07771365382 0.9673025352 0.07771365382 0.001379046950 -0.002946972019
3.956000000 0.001318610801 -0.002545278558 0.9681002252 0.06706557752 0.9681002252 0.06706557752 0.001318610801 -0.002545278558
3.963000000 0.001267028498 -0.002142351572 0.9687805377 0.05640932284 0.9687805377 0.05640932284 0.001267028498 -0.002142351572
3.970000000 0.001224325093 -0.001738386327 0.9693433884 0.04574618915 0.9693433884 0.04574618915 0.001224325093 -0.001738386327
3.977000000 0.001190521326 -0.001333578595 0.9697887075 0.03507747673 0.9697887075 0.03507747673 0.001190521326 -0.001333578595
3.984000000 0.001165633615 -0.0009281245581 0.9701164396 0.02440448659 0.9701164396 0.02440448659 0.001165633615 -0.0009281245581
3.991000000 0.001149674049 -0.0005222207139 0.9703265441 0.01372852027 0.9703265441 0.01372852027 0.001149674049 -0.0005222207139
3.998000000 0.001142650377 -0.0001160637796 0.9704189950 0.003050879728 0.9704189950 0.003050879728 0.001142650377 -0.0001160637796
4.005000000 0.001144566013 0.0002901494041 0.9703937808 -0.007627132879 0.9703937808 -0.007627132879 0.001144566013 0.0002901494041
4.012000000 0.001155420024 0.0006962219692 0.9702509047 -0.01830421534 0.9702509047 -0.01830421534 0.001155420024 0.0006962219692
4.019000000 0.001175207140 0.001101957116 0.9699903843 -0.02897906556 0.9699903843 -0.02897906556 0.001175207140 0.001101957116
4.026000000 0.001203917751 0.001507158210 0.9696122520 -0.03965038173 0.9696122520 -0.03965038173 0.001203917751 0.001507158210
4.033000000 0.001241537911 0.001911628877 0.9691165546 -0.05031686253 0.9691165546 -0.05031686253 0.001241537911 0.001911628877
4.040000000 0.001288049349 0.002315173098 0.9685033537 -0.06097720724 0.9685033537 -0.06097720724 0.001288049349 0.002315173098
4.047000000 0.001343429476 0.002717595308 0.9677727254 -0.07163011596 0.9677727254 -0.07163011596 0.001343429476 0.002717595308
4.054000000 0.001407651395 0.003118700487 0.9669247601 -0.08227428973 0.9669247601 -0.08227428973 0.001407651395 0.003118700487
4.061000000 0.001480683916 0.003518294259 0.9659595632 -0.09290843076 0.9659595632 -0.09290843076 0.001480683916 0.003518294259
4.068000000 0.001562491569 0.003916182984 0.9648772544 -0.1035312425 0.9648772544 -0.1035312425 0.001562491569 0.003916182984
4.075000000 0.001653034624 0.004312173856 0.9636779677 -0.1141414301 0.9636779677 -0.1141414301 0.001653034624 0.004312173856
4.082000000 0.001752269111 0.004706074991 0.9623618520 -0.1247377000 0.9623618520 -0.1247377000 0.001752269111 0.004706074991
4.089000000 0.001860146838 0.005097695526 0.9609290704 -0.1353187606 0.9609290704 -0.1353187606 0.001860146838 0.005097695526
4.096000000 0.001976615417 0.005486845712 0.9593798006 -0.1458833225 0.9593798006 -0.1458833225 0.001976615417 0.005486845712
4.103000000 0.002101618292 0.005873337000 0.9577142346 -0.1564300981 0.9577142346 -0.1564300981 0.002101618292 0.005873337000
4.110000000 0.002235094761 0.006256982141 0.9559325789 -0.1669578024 0.9559325789 -0.1669578024 0.002235094761 0.006256982141
4.117000000 0.002376980012 0.006637595274 0.9540350542 -0.1774651526 0.9540350542 -0.1774651526 0.002376980012 0.006637595274
4.124000000 0.002527205151 0.007014992014 0.9520218958 -0.1879508689 0.9520218958 -0.1879508689 0.002527205151 0.007014992014
4.131000000 0.002685697236 0.007388989546 0.9498933530 -0.1984136738 0.9498933530 -0.1984136738 0.002685697236 0.007388989546
4.138000000 0.002852379316 0.007759406711 0.9476496895 -0.2088522934 0.9476496895 -0.2088522934 0.002852379316 0.007759406711
4.145000000 0.003027170466 0.008126064094 0.9452911833 -0.2192654564 0.9452911833 -0.2192654564 0.003027170466 0.008126064094
4.152000000 0.003209985825 0.008488784115 0.9428181264 -0.2296518951 0.9428181264 -0.2296518951 0.003209985825 0.008488784115
4.159000000 0.003400736643 0.008847391112 0.9402308251 -0.2400103451 0.9402308251 -0.2400103451 0.003400736643 0.008847391112
4.166000000 0.003599330321 0.009201711428 0.9375295998 -0.2503395459 0.9375295998 -0.2503395459 0.003599330321 0.009201711428
4.173000000 0.003805670456 0.009551573492 0.9347147847 -0.2606382404 0.9347147847 -0.2606382404 0.003805670456 0.009551573492
4.180000000 0.004019656891 0.009896807909 0.9317867282 -0.2709051758 0.9317867282 -0.2709051758 0.004019656891 0.009896807909
4.187000000 0.004241185761 0.01023724754 0.9287457927 -0.2811391032 0.9287457927 -0.2811391032 0.004241185761 0.01023724754
4.194000000 0.004470149546 0.01057272757 0.9255923543 -0.2913387780 0.9255923543 -0.2913387780 0.004470149546 0.01057272757
4.201000000 0.004706437125 0.01090308561 0.9223268031 -0.3015029601 0.9223268031 -0.3015029601 0.004706437125 0.01090308561
4.208000000 0.004949933826 0.01122816177 0.9189495430 -0.3116304140 0.9189495430 -0.3116304140 0.004949933826 0.01122816177
4.215000000 0.005200521487 0.01154779872 0.9154609913 -0.3217199087 0.9154609913 -0.3217199087 0.005200521487 0.01154779872
4.222000000 0.005458078512 0.01186184179 0.9118615794 -0.3317702185 0.9118615794 -0.3317702185 0.005458078512 0.01186184179
4.229000000 0.005722479929 0.01217013903 0.9081517520 -0.3417801224 0.9081517520 -0.3417801224 0.005722479929 0.01217013903
4.236000000 0.005993597455 0.01247254128 0.9043319675 -0.3517484048 0.9043319675 -0.3517484048 0.005993597455 0.01247254128
4.243000000 0.006271299556 0.01276890225 0.9004026977 -0.3616738553 0.9004026977 -0.3616738553 0.006271299556 0.01276890225
4.250000000 0.006555451511 0.01305907860 0.8963644277 -0.3715552693 0.8963644277 -0.3715552693 0.006555451511 0.01305907860
4.257000000 0.006845915480 0.01334292999 0.8922176561 -0.3813914475 0.8922176561 -0.3813914475 0.006845915480 0.01334292999
4.264000000 0.007142550570 0.01362031917 0.8879628947 -0.3911811966 0.8879628947 -0.3911811966 0.007142550570 0.01362031917
4.271000000 0.007445212907 0.01389111203 0.8836006685 -0.4009233293 0.8836006685 -0.4009233293 0.007445212907 0.01389111203
4.278000000 0.007753755700 0.01415517765 0.8791315155 -0.4106166644 0.8791315155 -0.4106166644 0.007753755700 0.01415517765
4.285000000 0.008068029320 0.01441238840 0.8745559869 -0.4202600267 0.8745559869 -0.4202600267 0.008068029320 0.01441238840
4.292000000 0.008387881368 0.01466261998 0.8698746468 -0.4298522479 0.8698746468 -0.4298522479 0.008387881368 0.01466261998
4.299000000 0.008713156752 0.01490575148 0.8650880721 -0.4393921657 0.8650880721 -0.4393921657 0.008713156752 0.01490575148
4.306000000 0.009043697764 0.01514166546 0.8601968525 -0.4488786249 0.8601968525 -0.4488786249 0.009043697764 0.01514166546
4.313000000 0.009379344152 0.01537024796 0.8552015905 -0.4583104769 0.8552015905 -0.4583104769 0.009379344152 0.01537024796
4.320000000 0.009719933204 0.01559138859 0.8501029012 -0.4676865801 0.8501029012 -0.4676865801 0.009719933204 0.01559138859
4.327000000 0.01006529982 0.01580498060 0.8449014122 -0.4770058001 0.8449014122 -0.4770058001 0.01006529982 0.01580498060
4.334000000 0.01041527662 0.01601092087 0.8395977636 -0.4862670097 0.8395977636 -0.4862670097 0.01041527662 0.01601092087
4.341000000 0.01076969396 0.01620911003 0.8341926078 -0.4954690890 0.8341926078 -0.4954690890 0.01076969396 0.01620911003
4.348000000 0.01112838010 0.01639945245 0.8286866095 -0.5046109257 0.8286866095 -0.5046109257 0.01112838010 0.01639945245
4.355000000 0.01149116122 0.01658185633 0.8230804456 -0.5136914153 0.8230804456 -0.5136914153 0.01149116122 0.01658185633
4.362000000 0.01185786154 0.01675623372 0.8173748051 -0.5227094607 0.8173748051 -0.5227094607 0.01185786154 0.01675623372
4.369000000 0.01222830341 0.01692250055 0.8115703889 -0.5316639731 0.8115703889 -0.5316639731 0.01222830341 0.01692250055
4.376000000 0.01260230736 0.01708057670 0.8056679098 -0.5405538716 0.8056679098 -0.5405538716 0.01260230736 0.01708057670
4.383000000 0.01297969221 0.01723038603 0.7996680926 -0.5493780834 0.7996680926 -0.5493780834 0.01297969221 0.01723038603
4.390000000 0.01336027518 0.01737185640 0.7935716734 -0.5581355442 0.7935716734 -0.5581355442 0.01336027518 0.01737185640
4.397000000 0.01374387194 0.01750491972 0.7873794004 -0.5668251979 0.7873794004 -0.5668251979 0.01374387194 0.01750491972
4.404000000 0.01413029672 0.01762951198 0.7810920327 -0.5754459970 0.7810920327 -0.5754459970 0.01413029672 0.01762951198
4.411000000 0.01451936241 0.01774557326 0.7747103414 -0.5839969029 0.7747103414 -0.5839969029 0.01451936241 0.01774557326
4.418000000 0.01491088061 0.01785304781 0.7682351084 -0.5924768856 0.7682351084 -0.5924768856 0.01491088061 0.01785304781
4.425000000 0.01530466178 0.01795188401 0.7616671270 -0.6008849240 0.7616671270 -0.6008849240 0.01530466178 0.01795188401
4.432000000 0.01570051528 0.01804203445 0.7550072015 -0.6092200061 0.7550072015 -0.6092200061 0.01570051528 0.01804203445
4.439000000 0.01609824951 0.01812345591 0.7482561472 -0.6174811291 0.7482561472 -0.6174811291 0.01609824951 0.01812345591
4.446000000 0.01649767195 0.01819610941 0.7414147903 -0.6256672995 0.7414147903 -0.6256672995 0.01649767195 0.01819610941
4.453000000 0.01689858929 0.01825996021 0.7344839676 -0.6337775329 0.7344839676 -0.6337775329 0.01689858929 0.01825996021
4.460000000 0.01730080752 0.01831497784 0.7274645267 -0.6418108548 0.7274645267 -0.6418108548 0.01730080752 0.01831497784
4.467000000 0.01770413203 0.01836113612 0.7203573255 -0.6497663001 0.7203573255 -0.6497663001 0.01770413203 0.01836113612
4.474000000 0.01810836766 0.01839841312 0.7131632325 -0.6576429133 0.7131632325 -0.6576429133 0.01810836766 0.01839841312
4.481000000 0.01851331885 0.01842679125 0.7058831264 -0.6654397491 0.7058831264 -0.6654397491 0.01851331885 0.01842679125
4.488000000 0.01891878972 0.01844625719 0.6985178961 -0.6731558717 0.6985178961 -0.6731558717 0.01891878972 0.01844625719
4.495000000 0.01932458415 0.01845680197 0.6910684405 -0.6807903556 0.6910684405 -0.6807903556 0.01932458415 0.01845680197
4.502000000 0.01973050586 0.01845842091 0.6835356684 -0.6883422855 0.6835356684 -0.6883422855 0.01973050586 0.01845842091
